 &CONTROL
   calculation     = 'vc-relax' 
   outdir          = './temp/' 
   pseudo_dir      = './../../../pseudos/' 
   prefix          = 'phl-fe1-fe3' 
   verbosity       = 'high' 
 /
 &SYSTEM
   ibrav           = -12
   A               = 5.29899 
   B               = 9.19537 
   C               = 10.20856 
   cosAC           = -0.17756524 
   nat             = 44
   ntyp            = 7
   ecutwfc         = 60 
   ecutrho         = 480 
   occupations     = 'smearing' 
   degauss         = 0.001 
   smearing        = 'gaussian' 
   nspin           = 2 
   starting_magnetization(2) = 0.3
   vdw_corr        = 'grimme-d3' 
 /
 &ELECTRONS
 /
 &IONS
 /
 &CELL
   cell_dofree     = 'ibrav' 
 /
ATOMIC_SPECIES
   Al   26.98154  Al.pbe-n-kjpaw_psl.1.0.0.UPF 
   Fe   55.84500  Fe.pbe-spn-kjpaw_psl.1.0.0.UPF 
    H    1.00794  H.pbe-kjpaw_psl.1.0.0.UPF 
    K   39.09830  K.pbe-spn-kjpaw_psl.1.0.0.UPF 
   Mg   24.30500  Mg.pbe-spnl-kjpaw_psl.1.0.0.UPF 
    O   15.99940  O.pbe-n-kjpaw_psl.1.0.0.UPF 
   Si   28.08550  Si.pbe-n-kjpaw_psl.1.0.0.UPF 
ATOMIC_POSITIONS crystal 
    K      0.000000000    0.493136197    0.000000000    
    K      0.500000000    0.003711388    0.000000000    
   Mg      0.000000000    0.004438699    0.500000000    
   Mg      0.000000000    0.329972625    0.500000000    
   Mg      0.500000000    0.492622197    0.500000000    
   Mg      0.500000000    0.834955692    0.500000000    
   Mg      0.500000000    0.171967164    0.500000000    
   Si      0.083303042    0.165222064    0.221642166    
   Si      0.916696966    0.165222064    0.778357863    
   Si      0.937366545    0.835071564    0.772536159    
   Si      0.062633440    0.835071564    0.227463841    
   Si      0.559301317    0.666318297    0.224937379    
   Si      0.440698683    0.666318297    0.775062621    
   Al      0.415651143    0.330950320    0.776553273    
   Al      0.584348857    0.330950320    0.223446697    
    O      0.127347589    0.162974089    0.384124249    
    O      0.872652411    0.162974089    0.615875781    
    O      0.872622192    0.836745441    0.611328483    
    O      0.127377823    0.836745441    0.388671488    
    O      0.612542212    0.668536127    0.386615962    
    O      0.387457788    0.668536127    0.613384068    
    O      0.360808760    0.332702041    0.604255080    
    O      0.639191210    0.332702041    0.395744890    
    O      0.343939126    0.201643601    0.164512426    
    O      0.656060874    0.201643601    0.835487545    
    O      0.992705107    0.997912347    0.165789202    
    O      0.007294906    0.997912347    0.834210753    
    O      0.688086331    0.774664819    0.833836854    
    O      0.311913669    0.774664819    0.166163132    
    O      0.812560916    0.732331693    0.168243900    
    O      0.187439099    0.732331693    0.831756115    
    O      0.495074987    0.507272720    0.160163119    
    O      0.504925013    0.507272720    0.839836895    
    O      0.141986981    0.277846277    0.841473997    
    O      0.858013034    0.277846277    0.158526018    
    O      0.132072359    0.498816252    0.393463165    
    O      0.867927670    0.498816252    0.606536865    
    O      0.633017242    0.999270916    0.397197872    
    O      0.366982728    0.999270916    0.602802098    
    H      0.087248534    0.498151004    0.297468692    
    H      0.912751496    0.498151004    0.702531278    
    H      0.594114661    0.016485015    0.302366287    
    H      0.405885339    0.016485015    0.697633743    
   Fe      0.000000000    0.663361907    0.500000000    
K_POINTS automatic 
  6 3 3   0 0 0 

