 &CONTROL
   calculation     = 'vc-relax' 
   outdir          = './temp/' 
   pseudo_dir      = './../../../pseudos/' 
   prefix          = 'phl-ti1-ti2-v1x2' 
   verbosity       = 'high' 
 /
 &SYSTEM
   ibrav           = -12
   A               = 10.6448869705 
   B               = 9.2179479599 
   C               = 10.3517417908 
   cosAC           = -0.1777483029 
   nat             = 87
   ntyp            = 7
   ecutwfc         = 60 
   ecutrho         = 480 
   occupations     = 'smearing' 
   degauss         = 0.001 
   smearing        = 'gaussian' 
   nspin           = 2 
   starting_magnetization(2) = 0.3
   vdw_corr        = 'grimme-d3' 
 /
 &ELECTRONS
 /
 &IONS
 /
 &CELL
   cell_dofree     = 'ibrav' 
 /
ATOMIC_SPECIES
   Al   26.98154  Al.pbe-n-kjpaw_psl.1.0.0.UPF 
   Ti   47.86700  Ti.pbe-spn-kjpaw_psl.1.0.0.UPF 
    H    1.00794  H.pbe-kjpaw_psl.1.0.0.UPF 
    K   39.09830  K.pbe-spn-kjpaw_psl.1.0.0.UPF 
   Mg   24.30500  Mg.pbe-spnl-kjpaw_psl.1.0.0.UPF 
    O   15.99940  O.pbe-n-kjpaw_psl.1.0.0.UPF 
   Si   28.08550  Si.pbe-n-kjpaw_psl.1.0.0.UPF 
ATOMIC_POSITIONS crystal 
    K      0.000000000    0.504392028    0.000000000    
    K      0.500000000    0.488420993    0.000000000    
    K      0.251649320    0.004252049    0.983563483    
    K      0.748350680    0.004252049    0.016436517    
   Mg      0.000000000    0.674007237    0.500000000    
   Mg      0.500000000    0.668479562    0.500000000    
   Mg      0.252204239    0.498697549    0.500694633    
   Mg      0.747795761    0.498697549    0.499305367    
   Mg      0.242925689    0.841332912    0.500976980    
   Mg      0.757074296    0.841332912    0.499022990    
   Mg      0.251242369    0.163394675    0.503871143    
   Mg      0.748757660    0.163394675    0.496128857    
   Mg      0.500000000    0.332330048    0.500000000    
   Mg      0.500000000    0.002998607    0.500000000    
   Si      0.041635621    0.167581066    0.219775125    
   Si      0.541311443    0.166885674    0.225342497    
   Si      0.458688557    0.166885674    0.774657488    
   Si      0.958364367    0.167581066    0.780224860    
   Si      0.466076791    0.835604250    0.767786503    
   Si      0.965851843    0.833480239    0.768433630    
   Si      0.034148164    0.833480239    0.231566355    
   Si      0.533923209    0.835604250    0.232213467    
   Si      0.281350732    0.669409990    0.229487076    
   Si      0.782735407    0.669649303    0.228339925    
   Si      0.217264593    0.669649303    0.771660030    
   Si      0.718649268    0.669409990    0.770512879    
   Al      0.207428187    0.331583321    0.779703975    
   Al      0.708399236    0.332261294    0.769681215    
   Al      0.291600794    0.332261294    0.230318800    
   Al      0.792571783    0.331583321    0.220296040    
    O      0.062178787    0.184660107    0.382368445    
    O      0.564341307    0.165123448    0.385911644    
    O      0.435658664    0.165123448    0.614088356    
    O      0.937821209    0.184660107    0.617631555    
    O      0.436263770    0.834146142    0.608804107    
    O      0.934107244    0.821764648    0.612574577    
    O      0.065892726    0.821764648    0.387425393    
    O      0.563736260    0.834146142    0.391195893    
    O      0.310938537    0.670262098    0.389613241    
    O      0.813332558    0.667260647    0.388218641    
    O      0.186667442    0.667260647    0.611782312    
    O      0.689061463    0.670262098    0.610387743    
    O      0.169019908    0.332658589    0.604730666    
    O      0.684504449    0.332401425    0.598686874    
    O      0.315496564    0.332401425    0.401313156    
    O      0.830981135    0.332658589    0.395269334    
    O      0.171871156    0.204986811    0.166876540    
    O      0.664996028    0.216423452    0.164375052    
    O      0.335003972    0.216423452    0.835624933    
    O      0.828128815    0.204986811    0.833123505    
    O      0.002572846    0.998982906    0.175398514    
    O      0.502029419    0.998708546    0.170396179    
    O      0.497970581    0.998708546    0.829603791    
    O      0.997428179    0.998982906    0.824601471    
    O      0.345221013    0.769219041    0.829506099    
    O      0.842538059    0.774665236    0.832558632    
    O      0.157461926    0.774665236    0.167441398    
    O      0.654778957    0.769219041    0.170493945    
    O      0.407132804    0.735438466    0.173253343    
    O      0.905792296    0.737359405    0.168341443    
    O      0.094207659    0.737359405    0.831657529    
    O      0.592867196    0.735438466    0.826745629    
    O      0.248393297    0.508833826    0.168559700    
    O      0.754224002    0.509447098    0.165348977    
    O      0.245776042    0.509447098    0.834651053    
    O      0.751606703    0.508833826    0.831440330    
    O      0.072771437    0.276186407    0.844065905    
    O      0.574245453    0.276450932    0.834308088    
    O      0.425754547    0.276450932    0.165691882    
    O      0.927228570    0.276186407    0.155934080    
    O      0.061926514    0.494017541    0.402280152    
    O      0.565124214    0.503369987    0.395410389    
    O      0.434875757    0.503369987    0.604589581    
    O      0.938073516    0.494017541    0.597719789    
    O      0.316943556    0.000480076    0.396683276    
    O      0.804323971    0.002634961    0.386853486    
    O      0.195676059    0.002634961    0.613146484    
    O      0.683056474    0.000480076    0.603316724    
    H      0.046968985    0.485172719    0.307467878    
    H      0.546543956    0.497622162    0.300758660    
    H      0.453456044    0.497622162    0.699241340    
    H      0.953031003    0.485172719    0.692532122    
    H      0.300078124    0.014175441    0.302596062    
    H      0.896308899    0.997399271    0.392355204    
    H      0.103692107    0.997399271    0.607644796    
    H      0.699921906    0.014175441    0.697403908    
   Ti      0.000000000    0.315206409    0.500000000    
K_POINTS automatic 
  3 3 3   0 0 0 

