 &CONTROL
   calculation     = 'vc-relax' 
   outdir          = './temp/' 
   pseudo_dir      = './../../pseudos/' 
   prefix          = 'phl-fe1-nspin-dftd3' 
   verbosity       = 'high' 
   tstress         = .true. 
   tprnfor         = .true. 
 /
 &SYSTEM
   ibrav           = -12
   A               = 5.2856 
   B               = 9.1788 
   C               = 10.1916 
   cosAC           = -0.174017573 
   nat             = 44
   ntyp            = 7
   ecutwfc         = 60 
   ecutrho         = 480 
   occupations     = 'smearing' 
   degauss         = 0.001 
   smearing        = 'gaussian' 
   vdw_corr        = 'grimme-d3' 
 /
 &ELECTRONS
 /
 &IONS
 /
 &CELL
   cell_dofree     = 'ibrav' 
 /
ATOMIC_SPECIES
   Al   26.98154  Al.pbe-n-kjpaw_psl.1.0.0.UPF 
   Fe   55.84500  Fe.pbe-spn-kjpaw_psl.1.0.0.UPF 
    H    1.00794  H.pbe-kjpaw_psl.1.0.0.UPF 
    K   39.09830  K.pbe-spn-kjpaw_psl.1.0.0.UPF 
   Mg   24.30500  Mg.pbe-spnl-kjpaw_psl.1.0.0.UPF 
    O   15.99940  O.pbe-n-kjpaw_psl.1.0.0.UPF 
   Si   28.08550  Si.pbe-n-kjpaw_psl.1.0.0.UPF 
ATOMIC_POSITIONS crystal 
    K      0.000000000    0.493268132    0.000000000    
    K      0.500000000    0.004289113    0.000000000    
   Mg      0.000000000    0.003608677    0.500000000    
   Mg      0.000000000    0.334694058    0.500000000    
   Mg      0.000000000    0.661915839    0.500000000    
   Mg      0.500000000    0.832452357    0.500000000    
   Mg      0.500000000    0.175142169    0.500000000    
   Fe      0.500000000    0.498472512    0.500000000    
   Si      0.082248472    0.165221810    0.222898588    
   Si      0.917751491    0.165221810    0.777101457    
   Si      0.934410095    0.834050059    0.771127641    
   Si      0.065589912    0.834050059    0.228872359    
   Si      0.563689470    0.665451407    0.226062313    
   Si      0.436310530    0.665451407    0.773937702    
   Al      0.417809695    0.332950592    0.775753140    
   Al      0.582190275    0.332950592    0.224246874    
    O      0.126006380    0.164093211    0.385398865    
    O      0.873993576    0.164093211    0.614601135    
    O      0.874688625    0.831967115    0.610011697    
    O      0.125311360    0.831967115    0.389988303    
    O      0.627248943    0.666667223    0.388312250    
    O      0.372751057    0.666667223    0.611687720    
    O      0.364555806    0.337682813    0.602792859    
    O      0.635444164    0.337682813    0.397207171    
    O      0.343196154    0.202586398    0.165506110    
    O      0.656803846    0.202586398    0.834493876    
    O      0.993896425    0.997210205    0.167596266    
    O      0.006103552    0.997210205    0.832403779    
    O      0.680919886    0.776429236    0.831008434    
    O      0.319080114    0.776429236    0.168991566    
    O      0.817015707    0.730525374    0.167629749    
    O      0.182984278    0.730525374    0.832370281    
    O      0.490475655    0.508024395    0.159294039    
    O      0.509524345    0.508024395    0.840705991    
    O      0.143846512    0.277619004    0.840146601    
    O      0.856153488    0.277619004    0.159853369    
    O      0.139621198    0.502103865    0.395442188    
    O      0.860378802    0.502103865    0.604557812    
    O      0.631524205    0.999675632    0.397192717    
    O      0.368475765    0.999675632    0.602807283    
    H      0.128160149    0.492157727    0.300025672    
    H      0.871839821    0.492157727    0.699974358    
    H      0.595238686    0.013712422    0.301798880    
    H      0.404761314    0.013712422    0.698201060    
K_POINTS automatic 
  6 3 3   0 0 0 

