 &CONTROL
   calculation     = 'vc-relax' 
   outdir          = './temp/' 
   pseudo_dir      = './../../../pseudos/' 
   prefix          = 'phl-fe1-fe4-nspin' 
   verbosity       = 'high' 
 /
 &SYSTEM
   ibrav           = -12
   A               = 5.29899 
   B               = 9.19537 
   C               = 10.20856 
   cosAC           = -0.17756524 
   nat             = 44
   ntyp            = 7
   ecutwfc         = 60 
   ecutrho         = 480 
   occupations     = 'smearing' 
   degauss         = 0.001 
   smearing        = 'gaussian' 
   vdw_corr        = 'grimme-d3' 
 /
 &ELECTRONS
 /
 &IONS
 /
 &CELL
   cell_dofree     = 'ibrav' 
 /
ATOMIC_SPECIES
   Al   26.98154  Al.pbe-n-kjpaw_psl.1.0.0.UPF 
   Fe   55.84500  Fe.pbe-spn-kjpaw_psl.1.0.0.UPF 
    H    1.00794  H.pbe-kjpaw_psl.1.0.0.UPF 
    K   39.09830  K.pbe-spn-kjpaw_psl.1.0.0.UPF 
   Mg   24.30500  Mg.pbe-spnl-kjpaw_psl.1.0.0.UPF 
    O   15.99940  O.pbe-n-kjpaw_psl.1.0.0.UPF 
   Si   28.08550  Si.pbe-n-kjpaw_psl.1.0.0.UPF 
ATOMIC_POSITIONS crystal 
    K      0.000000000    0.492689520    0.000000000    
    K      0.500000000    0.004595883    0.000000000    
   Mg      0.000000000    0.003606641    0.500000000    
   Mg      0.000000000    0.334886372    0.500000000    
   Mg      0.000000000    0.662039578    0.500000000    
   Mg      0.500000000    0.832686245    0.500000000    
   Mg      0.500000000    0.175072759    0.500000000    
   Si      0.081434302    0.165266469    0.223393723    
   Si      0.918565691    0.165266469    0.776606321    
   Si      0.936355770    0.833918750    0.770763159    
   Si      0.063644245    0.833918750    0.229236826    
   Si      0.561742902    0.665542245    0.226502270    
   Si      0.438257068    0.665542245    0.773497701    
   Al      0.418572932    0.332907289    0.775254071    
   Al      0.581427038    0.332907289    0.224745914    
    O      0.125795066    0.164228886    0.385718733    
    O      0.874204874    0.164228886    0.614281297    
    O      0.875471711    0.831866443    0.609804213    
    O      0.124528274    0.831866443    0.390195787    
    O      0.626320601    0.666844964    0.388605535    
    O      0.373679399    0.666844964    0.611394465    
    O      0.365115911    0.337720573    0.602465630    
    O      0.634884059    0.337720573    0.397534400    
    O      0.341094732    0.203385174    0.166000232    
    O      0.658905268    0.203385174    0.833999753    
    O      0.994163275    0.997247636    0.168502554    
    O      0.005836724    0.997247636    0.831497431    
    O      0.684638679    0.775131524    0.830661654    
    O      0.315361321    0.775131524    0.169338375    
    O      0.813184440    0.731972992    0.168182597    
    O      0.186815590    0.731972992    0.831817389    
    O      0.491039068    0.508006573    0.159938157    
    O      0.508960903    0.508006573    0.840061843    
    O      0.146018207    0.276695400    0.839531839    
    O      0.853981793    0.276695400    0.160468176    
    O      0.139438018    0.501997530    0.395985574    
    O      0.860561967    0.501997530    0.604014456    
    O      0.631146848    0.999849439    0.397543967    
    O      0.368853152    0.999849439    0.602456033    
    H      0.128895238    0.491493672    0.300815612    
    H      0.871104777    0.491493672    0.699184418    
    H      0.593949437    0.013944637    0.302244574    
    H      0.406050593    0.013944637    0.697755456    
   Fe      0.500000000    0.498377442    0.500000000    
K_POINTS automatic 
  6 3 3   0 0 0 

