 &CONTROL
   calculation     = 'vc-relax' 
   outdir          = './temp/' 
   pseudo_dir      = './../../../pseudos/' 
   prefix          = 'phl-fe1-fe6' 
   verbosity       = 'high' 
 /
 &SYSTEM
   ibrav           = -12
   A               = 5.29899 
   B               = 9.19537 
   C               = 10.20856 
   cosAC           = -0.17756524 
   nat             = 44
   ntyp            = 7
   ecutwfc         = 60 
   ecutrho         = 480 
   occupations     = 'smearing' 
   degauss         = 0.001 
   smearing        = 'gaussian' 
   nspin           = 2 
   starting_magnetization(2) = 0.3
   vdw_corr        = 'grimme-d3' 
 /
 &ELECTRONS
 /
 &IONS
 /
 &CELL
   cell_dofree     = 'ibrav' 
 /
ATOMIC_SPECIES
   Al   26.98154  Al.pbe-n-kjpaw_psl.1.0.0.UPF 
   Fe   55.84500  Fe.pbe-spn-kjpaw_psl.1.0.0.UPF 
    H    1.00794  H.pbe-kjpaw_psl.1.0.0.UPF 
    K   39.09830  K.pbe-spn-kjpaw_psl.1.0.0.UPF 
   Mg   24.30500  Mg.pbe-spnl-kjpaw_psl.1.0.0.UPF 
    O   15.99940  O.pbe-n-kjpaw_psl.1.0.0.UPF 
   Si   28.08550  Si.pbe-n-kjpaw_psl.1.0.0.UPF 
ATOMIC_POSITIONS crystal 
    K      0.000000000    0.495478988    0.000000000    
    K      0.500000000    0.002516458    0.000000000    
   Mg      0.000000000    0.004425221    0.500000000    
   Mg      0.000000000    0.333268642    0.500000000    
   Mg      0.000000000    0.665350020    0.500000000    
   Mg      0.500000000    0.495015293    0.500000000    
   Mg      0.500000000    0.832820535    0.500000000    
   Si      0.079513863    0.164736703    0.220758498    
   Si      0.920486093    0.164736703    0.779241502    
   Si      0.935374439    0.834152877    0.771894515    
   Si      0.064625546    0.834152877    0.228105456    
   Si      0.563144743    0.666265070    0.225926995    
   Si      0.436855286    0.666265070    0.774073005    
   Al      0.416937500    0.331027567    0.777235031    
   Al      0.583062470    0.331027567    0.222764939    
    O      0.113295063    0.163934648    0.382719874    
    O      0.886704922    0.163934648    0.617280126    
    O      0.874541402    0.833253443    0.610777557    
    O      0.125458628    0.833253443    0.389222473    
    O      0.624915481    0.668379188    0.387755245    
    O      0.375084519    0.668379188    0.612244725    
    O      0.359566420    0.337000370    0.604563653    
    O      0.640433550    0.337000370    0.395436317    
    O      0.342501462    0.201488316    0.166093215    
    O      0.657498538    0.201488316    0.833906770    
    O      0.994421065    0.996567190    0.165723637    
    O      0.005578959    0.996567190    0.834276378    
    O      0.683759332    0.775037587    0.831811428    
    O      0.316240698    0.775037587    0.168188557    
    O      0.815301418    0.731204689    0.167434454    
    O      0.184698567    0.731204689    0.832565546    
    O      0.494083434    0.507785559    0.160618320    
    O      0.505916536    0.507785559    0.839381695    
    O      0.146074682    0.276631445    0.844116151    
    O      0.853925347    0.276631445    0.155883834    
    O      0.130469918    0.504380882    0.393581539    
    O      0.869530082    0.504380882    0.606418431    
    O      0.633574069    0.994583428    0.396037221    
    O      0.366425902    0.994583428    0.603962779    
    H      0.098566078    0.495511562    0.297841817    
    H      0.901433945    0.495511562    0.702158153    
    H      0.586932957    0.017260391    0.302337140    
    H      0.413067043    0.017260391    0.697662830    
   Fe      0.500000000    0.172718018    0.500000000    
K_POINTS automatic 
  6 3 3   0 0 0 

