 &CONTROL
   calculation     = 'vc-relax' 
   outdir          = './temp/' 
   pseudo_dir      = './../../pseudos/' 
   prefix          = 'phl-fe1-dftd3' 
   verbosity       = 'high' 
   tstress         = .true. 
   tprnfor         = .true. 
 /
 &SYSTEM
   ibrav           = -12
   A               = 5.2856 
   B               = 9.1788 
   C               = 10.1916 
   cosAC           = -0.174017573 
   nat             = 44
   ntyp            = 7
   ecutwfc         = 60 
   ecutrho         = 480 
   occupations     = 'smearing' 
   degauss         = 0.001 
   smearing        = 'gaussian' 
   nspin           = 2 
   starting_magnetization(2) = 0.3
   vdw_corr        = 'grimme-d3' 
 /
 &ELECTRONS
 /
 &IONS
 /
 &CELL
   cell_dofree     = 'ibrav' 
 /
ATOMIC_SPECIES
   Al   26.98154  Al.pbe-n-kjpaw_psl.1.0.0.UPF 
   Fe   55.84500  Fe.pbe-spn-kjpaw_psl.1.0.0.UPF 
    H    1.00794  H.pbe-kjpaw_psl.1.0.0.UPF 
    K   39.09830  K.pbe-spn-kjpaw_psl.1.0.0.UPF 
   Mg   24.30500  Mg.pbe-spnl-kjpaw_psl.1.0.0.UPF 
    O   15.99940  O.pbe-n-kjpaw_psl.1.0.0.UPF 
   Si   28.08550  Si.pbe-n-kjpaw_psl.1.0.0.UPF 
ATOMIC_POSITIONS crystal 
    K      0.000000000    0.494381189    0.000000000    
    K      0.500000000    0.003409701    0.000000000    
   Mg      0.000000000    0.003745379    0.500000000    
   Mg      0.000000000    0.332511365    0.500000000    
   Mg      0.000000000    0.665410519    0.500000000    
   Mg      0.500000000    0.835248947    0.500000000    
   Mg      0.500000000    0.169114590    0.500000000    
   Fe      0.500000000    0.492005169    0.500000000    
   Si      0.083203040    0.165084690    0.221200258    
   Si      0.916796923    0.165084690    0.778799772    
   Si      0.934189796    0.834619939    0.772776723    
   Si      0.065810189    0.834619939    0.227223292    
   Si      0.565096319    0.667663932    0.225631788    
   Si      0.434903681    0.667663932    0.774368227    
   Al      0.415144980    0.330996215    0.776671588    
   Al      0.584855020    0.330996215    0.223328426    
    O      0.127621293    0.163196355    0.383743793    
    O      0.872378647    0.163196355    0.616256177    
    O      0.874320269    0.833164215    0.611573994    
    O      0.125679716    0.833164215    0.388426006    
    O      0.628298819    0.674069107    0.387320578    
    O      0.371701151    0.674069107    0.612679362    
    O      0.359143555    0.327966928    0.603909016    
    O      0.640856445    0.327966928    0.396090955    
    O      0.344093084    0.202199057    0.163719013    
    O      0.655906916    0.202199057    0.836281002    
    O      0.993397653    0.997497678    0.165737957    
    O      0.006602321    0.997497678    0.834262073    
    O      0.681070268    0.776952386    0.833060443    
    O      0.318929732    0.776952386    0.166939542    
    O      0.817838073    0.730867863    0.165595174    
    O      0.182161942    0.730867863    0.834404826    
    O      0.493704528    0.508083880    0.162861899    
    O      0.506295502    0.508083880    0.837138116    
    O      0.142002344    0.277735889    0.842331886    
    O      0.857997656    0.277735889    0.157668129    
    O      0.119611897    0.503414631    0.391466886    
    O      0.880388081    0.503414631    0.608533084    
    O      0.633433580    0.998986840    0.396950752    
    O      0.366566420    0.998986840    0.603049219    
    H      0.111015439    0.495135814    0.296290129    
    H      0.888984561    0.495135814    0.703709841    
    H      0.596337020    0.014501058    0.301780075    
    H      0.403662950    0.014501058    0.698219895    
K_POINTS automatic 
  6 3 3   0 0 0 

