 &CONTROL
   calculation     = 'vc-relax' 
   outdir          = './temp/' 
   pseudo_dir      = './../../../pseudos/' 
   prefix          = 'phl-fe1-fe2x2' 
   verbosity       = 'high' 
   etot_conv_thr   = 1.0D-6 
 /
 &SYSTEM
   ibrav           = -12
   A               = 10.6550292969 
   B               = 9.2677536011 
   C               = 10.4135732651 
   cosAC           = -0.1781192578 
   nat             = 88
   ntyp            = 8
   ecutwfc         = 60 
   ecutrho         = 480 
   occupations     = 'smearing' 
   degauss         = 0.001 
   smearing        = 'gaussian' 
   vdw_corr        = 'grimme-d3' 
 /
 &ELECTRONS
 /
 &IONS
 /
 &CELL
   cell_dofree     = 'ibrav' 
 /
ATOMIC_SPECIES
   Al   26.98154  Al.pbe-n-kjpaw_psl.1.0.0.UPF 
  Fe1   55.84500  Fe.pbe-spn-kjpaw_psl.1.0.0.UPF 
  Fe2   55.84500  Fe.pbe-spn-kjpaw_psl.1.0.0.UPF 
    H    1.00794  H.pbe-kjpaw_psl.1.0.0.UPF 
    K   39.09830  K.pbe-spn-kjpaw_psl.1.0.0.UPF 
   Mg   24.30500  Mg.pbe-spnl-kjpaw_psl.1.0.0.UPF 
    O   15.99940  O.pbe-n-kjpaw_psl.1.0.0.UPF 
   Si   28.08550  Si.pbe-n-kjpaw_psl.1.0.0.UPF 
ATOMIC_POSITIONS crystal 
    K      0.000000000    0.493950874    0.000000000    
    K      0.500000000    0.493950874    0.000000000    
    K      0.250000060    0.002816796    0.000000000    
    K      0.750000060    0.002816796    0.000000000    
   Mg      0.000000000    0.006355344    0.499999940    
   Mg      0.500000000    0.006355344    0.499999940    
   Mg      0.000000000    0.666966438    0.499999940    
   Mg      0.500000000    0.666966438    0.499999940    
   Mg      0.250000149    0.495624781    0.499999940    
   Mg      0.750000119    0.495624781    0.499999940    
   Mg      0.250000149    0.835743010    0.499999940    
   Mg      0.750000119    0.835743010    0.499999940    
   Mg      0.250000149    0.170451418    0.499999940    
   Mg      0.750000119    0.170451418    0.499999940    
   Si      0.046620134    0.163269415    0.225108594    
   Si      0.546620131    0.163269415    0.225108594    
   Si      0.453380167    0.163269415    0.774891317    
   Si      0.953380167    0.163269415    0.774891317    
   Si      0.466705233    0.834433675    0.767131388    
   Si      0.966705203    0.834433675    0.767131388    
   Si      0.033295088    0.834433675    0.232868493    
   Si      0.533295095    0.834433675    0.232868493    
   Si      0.283056438    0.666440427    0.231440246    
   Si      0.783056438    0.666440427    0.231440246    
   Si      0.216943860    0.666440427    0.768559635    
   Si      0.716943860    0.666440427    0.768559635    
   Al      0.202647880    0.330606341    0.772066474    
   Al      0.702647865    0.330606341    0.772066474    
   Al      0.297352463    0.330606341    0.227933392    
   Al      0.797352433    0.330606341    0.227933392    
    O      0.068599664    0.157623172    0.384095550    
    O      0.568599641    0.157623172    0.384095550    
    O      0.431400657    0.157623172    0.615904391    
    O      0.931400657    0.157623172    0.615904391    
    O      0.437002987    0.834775269    0.608994603    
    O      0.937003016    0.834775269    0.608994603    
    O      0.062997341    0.834775269    0.391005307    
    O      0.562997341    0.834775269    0.391005307    
    O      0.313610703    0.669588506    0.390340596    
    O      0.813610673    0.669588506    0.390340596    
    O      0.186389580    0.669588506    0.609659314    
    O      0.686389565    0.669588506    0.609659314    
    O      0.179606959    0.333201796    0.601506293    
    O      0.679606974    0.333201796    0.601506293    
    O      0.320393354    0.333201796    0.398493528    
    O      0.820393324    0.333201796    0.398493528    
    O      0.175831959    0.204125896    0.169147372    
    O      0.675831974    0.204125896    0.169147372    
    O      0.324168354    0.204125896    0.830852449    
    O      0.824168324    0.204125896    0.830852449    
    O      0.004467245    0.996537149    0.169532537    
    O      0.504467249    0.996537149    0.169532537    
    O      0.495533079    0.996537149    0.830467343    
    O      0.995533109    0.996537149    0.830467343    
    O      0.343940437    0.768322110    0.825901926    
    O      0.843940437    0.768322110    0.825901926    
    O      0.156059891    0.768322110    0.174097970    
    O      0.656059861    0.768322110    0.174097970    
    O      0.405242085    0.738242030    0.173138499    
    O      0.905242085    0.738242030    0.173138499    
    O      0.094758220    0.738242030    0.826861382    
    O      0.594758213    0.738242030    0.826861382    
    O      0.255956501    0.507287204    0.167853221    
    O      0.755956531    0.507287204    0.167853221    
    O      0.244043782    0.507287204    0.832146645    
    O      0.744043767    0.507287204    0.832146645    
    O      0.066799223    0.275012016    0.835176945    
    O      0.566799223    0.275012016    0.835176945    
    O      0.433201104    0.275012016    0.164822951    
    O      0.933201075    0.275012016    0.164822951    
    O      0.068439543    0.511624634    0.393167824    
    O      0.568439543    0.511624634    0.393167824    
    O      0.431560755    0.511624634    0.606832087    
    O      0.931560755    0.511624634    0.606832087    
    O      0.317305058    0.999530554    0.398921907    
    O      0.817305088    0.999530554    0.398921907    
    O      0.182695284    0.999530554    0.601077974    
    O      0.682695270    0.999530554    0.601077974    
    H      0.052804146    0.490831792    0.300759465    
    H      0.552804172    0.490831792    0.300759465    
    H      0.447196186    0.490831792    0.699240446    
    H      0.947196186    0.490831792    0.699240446    
    H      0.297942787    0.014778626    0.305645406    
    H      0.797942758    0.014778626    0.305645406    
    H      0.202057526    0.014778626    0.694354475    
    H      0.702057540    0.014778626    0.694354475    
  Fe1      0.000000000    0.335622966    0.499999940    
  Fe2      0.500000000    0.335622966    0.499999940    
K_POINTS automatic 
  3 3 3   0 0 0 

