 &CONTROL
   calculation     = 'vc-relax' 
   outdir          = './temp/' 
   pseudo_dir      = './../../../pseudos/' 
   prefix          = 'phl-fe1-fe5' 
   verbosity       = 'high' 
 /
 &SYSTEM
   ibrav           = -12
   A               = 5.29899 
   B               = 9.19537 
   C               = 10.20856 
   cosAC           = -0.17756524 
   nat             = 44
   ntyp            = 7
   ecutwfc         = 60 
   ecutrho         = 480 
   occupations     = 'smearing' 
   degauss         = 0.001 
   smearing        = 'gaussian' 
   nspin           = 2 
   starting_magnetization(2) = 0.3
   vdw_corr        = 'grimme-d3' 
 /
 &ELECTRONS
 /
 &IONS
 /
 &CELL
   cell_dofree     = 'ibrav' 
 /
ATOMIC_SPECIES
   Al   26.98154  Al.pbe-n-kjpaw_psl.1.0.0.UPF 
   Fe   55.84500  Fe.pbe-spn-kjpaw_psl.1.0.0.UPF 
    H    1.00794  H.pbe-kjpaw_psl.1.0.0.UPF 
    K   39.09830  K.pbe-spn-kjpaw_psl.1.0.0.UPF 
   Mg   24.30500  Mg.pbe-spnl-kjpaw_psl.1.0.0.UPF 
    O   15.99940  O.pbe-n-kjpaw_psl.1.0.0.UPF 
   Si   28.08550  Si.pbe-n-kjpaw_psl.1.0.0.UPF 
ATOMIC_POSITIONS crystal 
    K      0.000000000    0.493180931    0.000000000    
    K      0.500000000    0.002724594    0.000000000    
   Mg      0.000000000    0.004665094    0.500000000    
   Mg      0.000000000    0.333739638    0.500000000    
   Mg      0.000000000    0.665058136    0.500000000    
   Mg      0.500000000    0.492992103    0.500000000    
   Mg      0.500000000    0.175079077    0.500000000    
   Si      0.083408818    0.165179402    0.221751407    
   Si      0.916591167    0.165179402    0.778248608    
   Si      0.939933002    0.834359765    0.773037732    
   Si      0.060067002    0.834359765    0.226962283    
   Si      0.560549438    0.665664256    0.225160688    
   Si      0.439450562    0.665664256    0.774839282    
   Al      0.415296435    0.330846131    0.776575208    
   Al      0.584703565    0.330846131    0.223424822    
    O      0.128054187    0.163857833    0.384272784    
    O      0.871945798    0.163857833    0.615727246    
    O      0.887815297    0.833358228    0.612140954    
    O      0.112184703    0.833358228    0.387859046    
    O      0.626544416    0.665304303    0.387160838    
    O      0.373455584    0.665304303    0.612839162    
    O      0.361026615    0.333786756    0.604362428    
    O      0.638973415    0.333786756    0.395637572    
    O      0.344473243    0.201226994    0.164773554    
    O      0.655526757    0.201226994    0.835226417    
    O      0.993717074    0.997806072    0.165862948    
    O      0.006282898    0.997806072    0.834137022    
    O      0.687025309    0.774453580    0.831071913    
    O      0.312974662    0.774453580    0.168928072    
    O      0.809812963    0.732480466    0.165004179    
    O      0.190187037    0.732480466    0.834995806    
    O      0.492624134    0.506961584    0.160201207    
    O      0.507375836    0.506961584    0.839798808    
    O      0.141462818    0.278070033    0.841551781    
    O      0.858537197    0.278070033    0.158448249    
    O      0.131104946    0.504363120    0.393876225    
    O      0.868895054    0.504363120    0.606123805    
    O      0.633873641    0.004286170    0.397306114    
    O      0.366126388    0.004286170    0.602693856    
    H      0.098697230    0.493286312    0.298353583    
    H      0.901302814    0.493286312    0.701646388    
    H      0.583567202    0.013096797    0.301783890    
    H      0.416432798    0.013096797    0.698216140    
   Fe      0.500000000    0.835779905    0.500000000    
K_POINTS automatic 
  6 3 3   0 0 0 

