 &CONTROL
   calculation     = 'relax' 
   outdir          = './temp/' 
   pseudo_dir      = './../../pseudos/' 
   prefix          = 'phl-fe1x2' 
   verbosity       = 'high' 
   tstress         = .true. 
   tprnfor         = .true. 
 /
 &SYSTEM
   ibrav           = -12
   A               = 10.607966423 
   B               = 9.224185944 
   C               = 10.194631577 
   cosAC           = -0.176276159 
   nat             = 88
   ntyp            = 8
   ecutwfc         = 60 
   ecutrho         = 480 
   occupations     = 'smearing' 
   degauss         = 0.001 
   smearing        = 'gaussian' 
   nspin           = 2 
   starting_magnetization(2) = 0.3
   starting_magnetization(3) = -0.3
   vdw_corr        = 'grimme-d2' 
 /
 &ELECTRONS
 /
 &IONS
 /
ATOMIC_SPECIES
   Al   26.98154  Al.pbe-n-kjpaw_psl.1.0.0.UPF 
  Fe1   55.84500  Fe.pbe-spn-kjpaw_psl.1.0.0.UPF 
  Fe2   55.84500  Fe.pbe-spn-kjpaw_psl.1.0.0.UPF 
    H    1.00794  H.pbe-kjpaw_psl.1.0.0.UPF 
    K   39.09830  K.pbe-spn-kjpaw_psl.1.0.0.UPF 
   Mg   24.30500  Mg.pbe-spnl-kjpaw_psl.1.0.0.UPF 
    O   15.99940  O.pbe-n-kjpaw_psl.1.0.0.UPF 
   Si   28.08550  Si.pbe-n-kjpaw_psl.1.0.0.UPF 
ATOMIC_POSITIONS crystal 
    K      0.000000000    0.498017192    0.000000000    
    K      0.500000000    0.498017192    0.000000000    
    K      0.250000030    0.000559667    0.000000000    
    K      0.750000000    0.000559667    0.000000000    
   Mg      0.499999881    0.003661556    0.500000000    
   Mg      0.000000000    0.003661556    0.500000000    
   Mg      0.499999881    0.331619292    0.500000000    
   Mg      0.000000000    0.331619292    0.500000000    
   Mg      0.499999881    0.665851831    0.500000000    
   Mg      0.000000000    0.665851831    0.500000000    
   Mg      0.249999925    0.835922539    0.500000000    
   Mg      0.749999940    0.835922539    0.500000000    
   Mg      0.249999925    0.168651789    0.500000000    
   Mg      0.749999940    0.168651789    0.500000000    
  Fe1      0.249999925    0.492426902    0.500000000    
  Fe2      0.749999940    0.492426902    0.500000000    
   Si      0.042109720    0.164744377    0.222286671    
   Si      0.542109728    0.164744377    0.222286671    
   Si      0.457890093    0.164744377    0.777713299    
   Si      0.957890093    0.164744377    0.777713299    
   Si      0.466721386    0.834431767    0.772030413    
   Si      0.966721416    0.834431767    0.772030413    
   Si      0.033278450    0.834431767    0.227969617    
   Si      0.533278465    0.834431767    0.227969617    
   Si      0.282964170    0.667713881    0.226202220    
   Si      0.782964170    0.667713881    0.226202220    
   Si      0.217035666    0.667713881    0.773797810    
   Si      0.717035651    0.667713881    0.773797810    
   Al      0.207163900    0.330970883    0.776247799    
   Al      0.707163930    0.330970883    0.776247799    
   Al      0.292835891    0.330970883    0.223752171    
   Al      0.792835891    0.330970883    0.223752171    
    O      0.063997053    0.162594005    0.384831309    
    O      0.563997030    0.162594005    0.384831309    
    O      0.436002761    0.162594005    0.615168631    
    O      0.936002731    0.162594005    0.615168631    
    O      0.436940938    0.833188534    0.610810935    
    O      0.936940908    0.833188534    0.610810935    
    O      0.063058898    0.833188534    0.389189005    
    O      0.563058913    0.833188534    0.389189005    
    O      0.314130217    0.674385846    0.387965530    
    O      0.814130187    0.674385846    0.387965530    
    O      0.185869634    0.674385846    0.612034380    
    O      0.685869634    0.674385846    0.612034380    
    O      0.179834798    0.328149855    0.603417456    
    O      0.679834783    0.328149855    0.603417456    
    O      0.320165038    0.328149855    0.396582544    
    O      0.820165038    0.328149855    0.396582544    
    O      0.172131404    0.202747166    0.165114194    
    O      0.672131419    0.202747166    0.165114194    
    O      0.327868432    0.202747166    0.834885776    
    O      0.827868462    0.202747166    0.834885776    
    O      0.498356819    0.997204244    0.167010441    
    O      0.998356819    0.997204244    0.167010441    
    O      0.001643006    0.997204244    0.832989573    
    O      0.501643002    0.997204244    0.832989573    
    O      0.341029018    0.775364816    0.832488477    
    O      0.841029048    0.775364816    0.832488477    
    O      0.158970803    0.775364816    0.167511478    
    O      0.658970833    0.775364816    0.167511478    
    O      0.408584714    0.732133150    0.166091040    
    O      0.908584714    0.732133150    0.166091040    
    O      0.091415122    0.732133150    0.833908975    
    O      0.591415107    0.732133150    0.833908975    
    O      0.249266595    0.508237720    0.163501889    
    O      0.749266624    0.508237720    0.163501889    
    O      0.250733227    0.508237720    0.836498082    
    O      0.750733256    0.508237720    0.836498082    
    O      0.070899844    0.276458949    0.841086388    
    O      0.570899844    0.276458949    0.841086388    
    O      0.429099977    0.276458949    0.158913642    
    O      0.929099977    0.276458949    0.158913642    
    O      0.059090871    0.503481507    0.391631961    
    O      0.559090853    0.503481507    0.391631961    
    O      0.440908939    0.503481507    0.608367980    
    O      0.940908909    0.503481507    0.608367980    
    O      0.316650718    0.999107420    0.396777034    
    O      0.816650748    0.999107420    0.396777034    
    O      0.183349133    0.999107420    0.603223026    
    O      0.683349133    0.999107420    0.603223026    
    H      0.051862285    0.494124204    0.296244651    
    H      0.551862299    0.494124204    0.296244651    
    H      0.448137552    0.494124204    0.703755379    
    H      0.948137522    0.494124204    0.703755379    
    H      0.298303515    0.016654795    0.301944822    
    H      0.798303485    0.016654795    0.301944822    
    H      0.201696306    0.016654795    0.698055148    
    H      0.701696277    0.016654795    0.698055148    
K_POINTS automatic 
  3 3 3   0 0 0 

