 &CONTROL
   calculation     = 'relax' 
   outdir          = './temp/' 
   pseudo_dir      = './../../pseudos/' 
   prefix          = 'phl-fe1x2' 
   verbosity       = 'high' 
 /
 &SYSTEM
   ibrav           = -12
   A               = 10.607966423 
   B               = 9.224185944 
   C               = 10.194631577
   cosAC           = -0.176276159
   nat             = 88
   ntyp            = 8
   ecutwfc         = 60 
   ecutrho         = 480 
   occupations     = 'smearing' 
   degauss         = 0.001 
   smearing        = 'gaussian' 
   nspin           = 2 
   starting_magnetization(2) = 0.3
   starting_magnetization(3) = -0.3
   vdw_corr        = 'grimme-d2' 
 /
 &ELECTRONS
 /
 &IONS
 /
 &CELL
   cell_dofree     = 'ibrav' 
 /
ATOMIC_SPECIES
   Al   26.98154  Al.pbe-n-kjpaw_psl.1.0.0.UPF 
   Fe1  55.84500  Fe.pbe-spn-kjpaw_psl.1.0.0.UPF 
   Fe2  55.84500  Fe.pbe-spn-kjpaw_psl.1.0.0.UPF
    H    1.00794  H.pbe-kjpaw_psl.1.0.0.UPF 
    K   39.09830  K.pbe-spn-kjpaw_psl.1.0.0.UPF 
   Mg   24.30500  Mg.pbe-spnl-kjpaw_psl.1.0.0.UPF 
    O   15.99940  O.pbe-n-kjpaw_psl.1.0.0.UPF 
   Si   28.08550  Si.pbe-n-kjpaw_psl.1.0.0.UPF 
ATOMIC_POSITIONS crystal 
K            0.0000000000       0.4980171920       0.0000000000
K            0.5000000000       0.4980171920       0.0000000000
K            0.2500000300       0.0005596670       0.0000000000
K            0.7500000000       0.0005596670       0.0000000000
Mg           0.4999998810       0.0036615560       0.5000000000
Mg           0.0000000000       0.0036615560       0.5000000000
Mg           0.4999998810       0.3316192920       0.5000000000
Mg           0.0000000000       0.3316192920       0.5000000000
Mg           0.4999998810       0.6658518310       0.5000000000
Mg           0.0000000000       0.6658518310       0.5000000000
Mg           0.2499999250       0.8359225390       0.5000000000
Mg           0.7499999400       0.8359225390       0.5000000000
Mg           0.2499999250       0.1686517890       0.5000000000
Mg           0.7499999400       0.1686517890       0.5000000000
Fe1          0.2499999250       0.4924269020       0.5000000000
Fe2          0.7499999400       0.4924269020       0.5000000000
Si           0.0421097200       0.1647443770       0.2222866710
Si           0.5421097280       0.1647443770       0.2222866710
Si           0.4578900930       0.1647443770       0.7777132990
Si           0.9578900930       0.1647443770       0.7777132990
Si           0.4667213860       0.8344317670       0.7720304130
Si           0.9667214160       0.8344317670       0.7720304130
Si           0.0332784500       0.8344317670       0.2279696170
Si           0.5332784650       0.8344317670       0.2279696170
Si           0.2829641700       0.6677138810       0.2262022200
Si           0.7829641700       0.6677138810       0.2262022200
Si           0.2170356660       0.6677138810       0.7737978100
Si           0.7170356510       0.6677138810       0.7737978100
Al           0.2071639000       0.3309708830       0.7762477990
Al           0.7071639300       0.3309708830       0.7762477990
Al           0.2928358910       0.3309708830       0.2237521710
Al           0.7928358910       0.3309708830       0.2237521710
O            0.0639970530       0.1625940050       0.3848313090
O            0.5639970300       0.1625940050       0.3848313090
O            0.4360027610       0.1625940050       0.6151686310
O            0.9360027310       0.1625940050       0.6151686310
O            0.4369409380       0.8331885340       0.6108109350
O            0.9369409080       0.8331885340       0.6108109350
O            0.0630588980       0.8331885340       0.3891890050
O            0.5630589130       0.8331885340       0.3891890050
O            0.3141302170       0.6743858460       0.3879655300
O            0.8141301870       0.6743858460       0.3879655300
O            0.1858696340       0.6743858460       0.6120343800
O            0.6858696340       0.6743858460       0.6120343800
O            0.1798347980       0.3281498550       0.6034174560
O            0.6798347830       0.3281498550       0.6034174560
O            0.3201650380       0.3281498550       0.3965825440
O            0.8201650380       0.3281498550       0.3965825440
O            0.1721314040       0.2027471660       0.1651141940
O            0.6721314190       0.2027471660       0.1651141940
O            0.3278684320       0.2027471660       0.8348857760
O            0.8278684620       0.2027471660       0.8348857760
O            0.4983568190       0.9972042440       0.1670104410
O            0.9983568190       0.9972042440       0.1670104410
O            0.0016430060       0.9972042440       0.8329895730
O            0.5016430020       0.9972042440       0.8329895730
O            0.3410290180       0.7753648160       0.8324884770
O            0.8410290480       0.7753648160       0.8324884770
O            0.1589708030       0.7753648160       0.1675114780
O            0.6589708330       0.7753648160       0.1675114780
O            0.4085847140       0.7321331500       0.1660910400
O            0.9085847140       0.7321331500       0.1660910400
O            0.0914151220       0.7321331500       0.8339089750
O            0.5914151070       0.7321331500       0.8339089750
O            0.2492665950       0.5082377200       0.1635018890
O            0.7492666240       0.5082377200       0.1635018890
O            0.2507332270       0.5082377200       0.8364980820
O            0.7507332560       0.5082377200       0.8364980820
O            0.0708998440       0.2764589490       0.8410863880
O            0.5708998440       0.2764589490       0.8410863880
O            0.4290999770       0.2764589490       0.1589136420
O            0.9290999770       0.2764589490       0.1589136420
O            0.0590908710       0.5034815070       0.3916319610
O            0.5590908530       0.5034815070       0.3916319610
O            0.4409089390       0.5034815070       0.6083679800
O            0.9409089090       0.5034815070       0.6083679800
O            0.3166507180       0.9991074200       0.3967770340
O            0.8166507480       0.9991074200       0.3967770340
O            0.1833491330       0.9991074200       0.6032230260
O            0.6833491330       0.9991074200       0.6032230260
H            0.0518622850       0.4941242040       0.2962446510
H            0.5518622990       0.4941242040       0.2962446510
H            0.4481375520       0.4941242040       0.7037553790
H            0.9481375220       0.4941242040       0.7037553790
H            0.2983035150       0.0166547950       0.3019448220
H            0.7983034850       0.0166547950       0.3019448220
H            0.2016963060       0.0166547950       0.6980551480
H            0.7016962770       0.0166547950       0.6980551480    
K_POINTS automatic 
  3 3 3   0 0 0 

