 &CONTROL
   calculation     = 'relax' 
   outdir          = './temp/' 
   pseudo_dir      = './../../../pseudos/' 
   prefix          = 'phl-ti1-ti2-v1x2' 
   verbosity       = 'high' 
 /
 &SYSTEM
   ibrav           = -12
   A               = 10.6448869705 
   B               = 9.2179479599 
   C               = 10.3517417908 
   cosAC           = -0.1777483029 
   nat             = 87
   ntyp            = 7
   ecutwfc         = 60 
   ecutrho         = 480 
   occupations     = 'smearing' 
   degauss         = 0.001 
   smearing        = 'gaussian' 
   nspin           = 2 
   starting_magnetization(2) = 0.3
   vdw_corr        = 'grimme-d3' 
 /
 &ELECTRONS
 /
 &IONS
 /
ATOMIC_SPECIES
   Al   26.98154  Al.pbe-n-kjpaw_psl.1.0.0.UPF 
   Ti   47.86700  Ti.pbe-spn-kjpaw_psl.1.0.0.UPF 
    H    1.00794  H.pbe-kjpaw_psl.1.0.0.UPF 
    K   39.09830  K.pbe-spn-kjpaw_psl.1.0.0.UPF 
   Mg   24.30500  Mg.pbe-spnl-kjpaw_psl.1.0.0.UPF 
    O   15.99940  O.pbe-n-kjpaw_psl.1.0.0.UPF 
   Si   28.08550  Si.pbe-n-kjpaw_psl.1.0.0.UPF 
ATOMIC_POSITIONS crystal 
    K      0.000000000    0.504867971    0.000000000    
    K      0.500000000    0.504867971    0.000000000    
    K      0.250000000    0.000867000    0.000000000    
    K      0.750000000    0.000867000    0.000000000    
   Mg      0.000000000    0.677570999    0.500000000    
   Mg      0.500000000    0.677570999    0.500000000    
   Mg      0.250000000    0.502898991    0.500000000    
   Mg      0.750000000    0.502898991    0.500000000    
   Mg      0.250000000    0.844825983    0.500000000    
   Mg      0.750000000    0.844825983    0.500000000    
   Mg      0.250000000    0.151766002    0.500000000    
   Mg      0.750000000    0.151766002    0.500000000    
   Mg      0.500000000    0.313975006    0.500000000    
   Mg      0.500000000    0.003902000    0.500000000    
   Si      0.042473000    0.168798000    0.218813002    
   Si      0.542473018    0.168798000    0.218813002    
   Si      0.457527012    0.168798000    0.781186998    
   Si      0.957526982    0.168798000    0.781186998    
   Si      0.463279009    0.834307015    0.767814994    
   Si      0.963279009    0.834307015    0.767814994    
   Si      0.036720999    0.834307015    0.232185006    
   Si      0.536720991    0.834307015    0.232185006    
   Si      0.283246994    0.671665013    0.227993995    
   Si      0.783246994    0.671665013    0.227993995    
   Si      0.216753006    0.671665013    0.772005975    
   Si      0.716753006    0.671665013    0.772005975    
   Al      0.206922993    0.331975996    0.777945995    
   Al      0.706923008    0.331975996    0.777945995    
   Al      0.293076992    0.331975996    0.222054005    
   Al      0.793076992    0.331975996    0.222054005    
    O      0.064145997    0.186183006    0.381839991    
    O      0.564145982    0.186183006    0.381839991    
    O      0.435853988    0.186183006    0.618160009    
    O      0.935854018    0.186183006    0.618160009    
    O      0.431825012    0.822454989    0.612006009    
    O      0.931824982    0.822454989    0.612006009    
    O      0.068175003    0.822454989    0.387993991    
    O      0.568175018    0.822454989    0.387993991    
    O      0.312572002    0.667089999    0.388202995    
    O      0.812572002    0.667089999    0.388202995    
    O      0.187427998    0.667089999    0.611797988    
    O      0.687427998    0.667089999    0.611797988    
    O      0.171465993    0.331625015    0.601686001    
    O      0.671465993    0.331625015    0.601686001    
    O      0.328534991    0.331625015    0.398313999    
    O      0.828535020    0.331625015    0.398313999    
    O      0.167420000    0.216257006    0.161513999    
    O      0.667420030    0.216257006    0.161513999    
    O      0.332580000    0.216257006    0.838486016    
    O      0.832579970    0.216257006    0.838486016    
    O      0.006604000    0.999903023    0.174761996    
    O      0.506604016    0.999903023    0.174761996    
    O      0.493396014    0.999903023    0.825237989    
    O      0.993396997    0.999903023    0.825237989    
    O      0.344314992    0.769464016    0.834824026    
    O      0.844314992    0.769464016    0.834824026    
    O      0.155684993    0.769464016    0.165176004    
    O      0.655685008    0.769464016    0.165176004    
    O      0.407083005    0.738976002    0.169826999    
    O      0.907082975    0.738976002    0.169826999    
    O      0.092917003    0.738976002    0.830172002    
    O      0.592917025    0.738976002    0.830172002    
    O      0.254624993    0.509782016    0.167762995    
    O      0.754625022    0.509782016    0.167762995    
    O      0.245375007    0.509782016    0.832237005    
    O      0.745374978    0.509782016    0.832237005    
    O      0.073339000    0.276625991    0.841947973    
    O      0.573338985    0.276625991    0.841947973    
    O      0.426661015    0.276625991    0.158051997    
    O      0.926661015    0.276625991    0.158051997    
    O      0.062341001    0.493185997    0.401924998    
    O      0.562340975    0.493185997    0.401924998    
    O      0.437658995    0.493185997    0.598074973    
    O      0.937659025    0.493185997    0.598074973    
    O      0.303369999    0.001204000    0.383776993    
    O      0.803369999    0.001204000    0.383776993    
    O      0.196630001    0.001204000    0.616222978    
    O      0.696630001    0.001204000    0.616222978    
    H      0.043598998    0.486369014    0.306966007    
    H      0.543599010    0.486369014    0.306966007    
    H      0.456400990    0.486369014    0.693033993    
    H      0.956400990    0.486369014    0.693033993    
    H      0.298180997    0.012651000    0.303090990    
    H      0.895070016    0.993794978    0.388078004    
    H      0.104930997    0.993794978    0.611922026    
    H      0.701819003    0.012651000    0.696909010    
   Ti      0.000000000    0.313975006    0.500000000    
K_POINTS automatic 
  3 3 3   0 0 0 

