 &CONTROL
   calculation     = 'relax' 
   outdir          = './temp/' 
   pseudo_dir      = './../../../pseudos/' 
   prefix          = 'phl-fe1-fe2x2' 
   verbosity       = 'high' 
   etot_conv_thr   = 1.0D-6 
 /
 &SYSTEM
   ibrav           = -12
   A               = 10.6563720703 
   B               = 9.2662534714 
   C               = 10.4270296097 
   cosAC           = -0.1840697747 
   nat             = 88
   ntyp            = 8
   ecutwfc         = 60 
   ecutrho         = 480 
   occupations     = 'smearing' 
   degauss         = 0.001 
   smearing        = 'gaussian' 
   nspin           = 2 
   starting_magnetization(2) = 0.3
   starting_magnetization(3) = -0.3
   vdw_corr        = 'grimme-d3' 
 /
 &ELECTRONS
   conv_thr        = 1.0D-8 
 /
 &IONS
 /
ATOMIC_SPECIES
   Al   26.98154  Al.pbe-n-kjpaw_psl.1.0.0.UPF 
  Fe1   55.84500  Fe.pbe-spn-kjpaw_psl.1.0.0.UPF 
  Fe2   55.84500  Fe.pbe-spn-kjpaw_psl.1.0.0.UPF 
    H    1.00794  H.pbe-kjpaw_psl.1.0.0.UPF 
    K   39.09830  K.pbe-spn-kjpaw_psl.1.0.0.UPF 
   Mg   24.30500  Mg.pbe-spnl-kjpaw_psl.1.0.0.UPF 
    O   15.99940  O.pbe-n-kjpaw_psl.1.0.0.UPF 
   Si   28.08550  Si.pbe-n-kjpaw_psl.1.0.0.UPF 
ATOMIC_POSITIONS crystal 
    K      0.000000000    0.490407497    0.000000000    
    K      0.500000000    0.490407497    0.000000000    
    K      0.250000000    0.005601825    0.000000000    
    K      0.750000000    0.005601825    0.000000000    
   Mg      0.000000188    0.006093055    0.499999821    
   Mg      0.500000179    0.006093055    0.499999821    
   Mg      0.000000188    0.667206407    0.499999821    
   Mg      0.500000179    0.667206407    0.499999821    
   Mg      0.250000209    0.495922297    0.499999821    
   Mg      0.750000238    0.495922297    0.499999821    
   Mg      0.250000209    0.835517287    0.499999821    
   Mg      0.750000238    0.835517287    0.499999821    
   Mg      0.250000209    0.170486078    0.499999821    
   Mg      0.750000238    0.170486078    0.499999821    
   Si      0.044099137    0.163200319    0.225169063    
   Si      0.544099152    0.163200319    0.225169063    
   Si      0.455901265    0.163200319    0.774830639    
   Si      0.955901265    0.163200319    0.774830639    
   Si      0.468012154    0.834220827    0.767343879    
   Si      0.968012154    0.834220827    0.767343879    
   Si      0.031988271    0.834220827    0.232655764    
   Si      0.531988263    0.834220827    0.232655764    
   Si      0.281701893    0.666619122    0.231216252    
   Si      0.781701922    0.666619122    0.231216252    
   Si      0.218298480    0.666619122    0.768783391    
   Si      0.718298495    0.666619122    0.768783391    
   Al      0.205139801    0.330709457    0.771881759    
   Al      0.705139816    0.330709457    0.771881759    
   Al      0.294860631    0.330709457    0.228117883    
   Al      0.794860601    0.330709457    0.228117883    
    O      0.067591175    0.157716960    0.384108007    
    O      0.567591190    0.157716960    0.384108007    
    O      0.432409227    0.157716960    0.615891695    
    O      0.932409227    0.157716960    0.615891695    
    O      0.437690914    0.834582806    0.609218657    
    O      0.937690914    0.834582806    0.609218657    
    O      0.062309500    0.834582806    0.390781015    
    O      0.562309504    0.834582806    0.390781015    
    O      0.312988937    0.669816852    0.390103519    
    O      0.812988937    0.669816852    0.390103519    
    O      0.187011451    0.669816852    0.609896183    
    O      0.687011480    0.669816852    0.609896183    
    O      0.180385560    0.333256274    0.601427197    
    O      0.680385590    0.333256274    0.601427197    
    O      0.319614857    0.333256274    0.398572415    
    O      0.819614887    0.333256274    0.398572415    
    O      0.172510818    0.205007210    0.168902472    
    O      0.672510803    0.205007210    0.168902472    
    O      0.327489585    0.205007210    0.831097126    
    O      0.827489614    0.205007210    0.831097126    
    O      0.001825234    0.996354699    0.169696957    
    O      0.501825213    0.996354699    0.169696957    
    O      0.498175174    0.996354699    0.830302715    
    O      0.998175144    0.996354699    0.830302715    
    O      0.344920456    0.769665360    0.825881064    
    O      0.844920456    0.769665360    0.825881064    
    O      0.155079961    0.769665360    0.174118578    
    O      0.655079961    0.769665360    0.174118578    
    O      0.404193163    0.736962914    0.173059195    
    O      0.904193163    0.736962914    0.173059195    
    O      0.095807247    0.736962914    0.826940477    
    O      0.595807254    0.736962914    0.826940477    
    O      0.252991766    0.507408202    0.168044582    
    O      0.752991796    0.507408202    0.168044582    
    O      0.247008607    0.507408202    0.831955075    
    O      0.747008622    0.507408202    0.831955075    
    O      0.070250802    0.274147451    0.835276544    
    O      0.570250809    0.274147451    0.835276544    
    O      0.429749638    0.274147451    0.164723128    
    O      0.929749608    0.274147451    0.164723128    
    O      0.067762308    0.511618435    0.393535167    
    O      0.567762315    0.511618435    0.393535167    
    O      0.432238102    0.511618435    0.606464505    
    O      0.932238102    0.511618435    0.606464505    
    O      0.316726118    0.999554276    0.399311751    
    O      0.816726089    0.999554276    0.399311751    
    O      0.183274314    0.999554276    0.600687921    
    O      0.683274329    0.999554276    0.600687921    
    H      0.051861141    0.492395818    0.300886124    
    H      0.551861167    0.492395818    0.300886124    
    H      0.448139280    0.492395818    0.699113548    
    H      0.948139310    0.492395818    0.699113548    
    H      0.296866536    0.013374892    0.305890530    
    H      0.796866536    0.013374892    0.305890530    
    H      0.203133881    0.013374892    0.694109142    
    H      0.703133881    0.013374892    0.694109142    
  Fe1      0.000000188    0.335532904    0.499999821    
  Fe2      0.500000179    0.335532904    0.499999821    
K_POINTS automatic 
  3 3 3   0 0 0 

