 &CONTROL
   calculation     = 'vc-relax' 
   outdir          = './temp/' 
   pseudo_dir      = './../../../pseudos/' 
   prefix          = 'phl-ti1-ti2-v1' 
   verbosity       = 'high' 
 /
 &SYSTEM
   ibrav           = -12
   A               = 5.29899 
   B               = 9.19537 
   C               = 10.20856 
   cosAC           = -0.17756524 
   nat             = 43
   ntyp            = 7
   ecutwfc         = 60 
   ecutrho         = 480 
   occupations     = 'smearing' 
   degauss         = 0.001 
   smearing        = 'gaussian' 
   nspin           = 2 
   starting_magnetization(2) = 0.3
   vdw_corr        = 'grimme-d3' 
 /
 &ELECTRONS
 /
 &IONS
 /
 &CELL
   cell_dofree     = 'ibrav' 
 /
ATOMIC_SPECIES
   Al   26.98154  Al.pbe-n-kjpaw_psl.1.0.0.UPF 
   Ti   47.86700  Ti.pbe-spn-kjpaw_psl.1.0.0.UPF 
    H    1.00794  H.pbe-kjpaw_psl.1.0.0.UPF 
    K   39.09830  K.pbe-spn-kjpaw_psl.1.0.0.UPF 
   Mg   24.30500  Mg.pbe-spnl-kjpaw_psl.1.0.0.UPF 
    O   15.99940  O.pbe-n-kjpaw_psl.1.0.0.UPF 
   Si   28.08550  Si.pbe-n-kjpaw_psl.1.0.0.UPF 
ATOMIC_POSITIONS crystal 
    K      0.000000000    0.508340061    0.000000000    
    K      0.500000000    0.997213185    0.000000000    
   Mg      0.000000000    0.677676380    0.500000000    
   Mg      0.500000000    0.502515137    0.500000000    
   Mg      0.500000000    0.844876111    0.500000000    
   Mg      0.500000000    0.151407287    0.500000000    
   Si      0.085226364    0.168838486    0.215759516    
   Si      0.914773643    0.168838486    0.784240544    
   Si      0.928237498    0.834814787    0.770651698    
   Si      0.071762480    0.834814787    0.229348302    
   Si      0.565024853    0.671314597    0.225424945    
   Si      0.434975147    0.671314597    0.774575055    
   Al      0.413972110    0.331738561    0.780869722    
   Al      0.586027920    0.331738561    0.219130278    
    O      0.129192933    0.185547739    0.380963236    
    O      0.870807052    0.185547739    0.619036794    
    O      0.864722073    0.823751211    0.612792850    
    O      0.135277942    0.823751211    0.387207180    
    O      0.624619484    0.667027593    0.387650400    
    O      0.375380546    0.667027593    0.612349629    
    O      0.343749255    0.331801236    0.602435112    
    O      0.656250715    0.331801236    0.397564858    
    O      0.337473184    0.213764638    0.157954112    
    O      0.662526846    0.213764638    0.842045844    
    O      0.009087682    0.000233054    0.170735970    
    O      0.990912318    0.000233054    0.829263985    
    O      0.689215481    0.770322978    0.838402987    
    O      0.310784519    0.770322978    0.161597028    
    O      0.813515902    0.737972736    0.166174203    
    O      0.186484069    0.737972736    0.833825767    
    O      0.505218387    0.509433806    0.164400578    
    O      0.494781584    0.509433806    0.835599422    
    O      0.143642902    0.279384822    0.845084012    
    O      0.856357098    0.279384822    0.154916018    
    O      0.124017663    0.493618160    0.399757236    
    O      0.875982344    0.493618160    0.600242734    
    O      0.608628929    0.001120806    0.382197678    
    O      0.391371101    0.001120806    0.617802322    
    H      0.086806506    0.485771745    0.303529769    
    H      0.913193524    0.485771745    0.696470201    
    H      0.793143868    0.993429840    0.387685716    
    H      0.206856102    0.993429840    0.612314284    
   Ti      0.000000000    0.314291239    0.500000000    
K_POINTS automatic 
  6 3 3   0 0 0 

