 &CONTROL
   calculation     = 'scf' 
   outdir          = './temp/' 
   pseudo_dir      = './../../pseudos/' 
   prefix          = 'phl-fe0-dftd3' 
   verbosity       = 'high' 
   tstress         = .true. 
   tprnfor         = .true. 
 /
 &SYSTEM
   ibrav           = -12
   A               = 5.32391644 
   B               = 9.24179935 
   C               = 10.41850185 
   cosAC           = -0.17969714 
   nat             = 44
   ntyp            = 6
   ecutwfc         = 70 
   ecutrho         = 560 
   occupations     = 'fixed' 
   vdw_corr        = 'grimme-d3' 
 /
 &ELECTRONS
   conv_thr        = 1.0D-8 
 /
ATOMIC_SPECIES
   Al   26.98154  Al.pbe-n-kjpaw_psl.1.0.0.UPF 
    H    1.00794  H.pbe-kjpaw_psl.1.0.0.UPF 
    K   39.09830  K.pbe-spn-kjpaw_psl.1.0.0.UPF 
   Mg   24.30500  Mg.pbe-spnl-kjpaw_psl.1.0.0.UPF 
    O   15.99940  O.pbe-n-kjpaw_psl.1.0.0.UPF 
   Si   28.08550  Si.pbe-n-kjpaw_psl.1.0.0.UPF 
ATOMIC_POSITIONS crystal 
    K      0.000000000    0.486960709    0.000000000    
    K      0.499999881    0.010018051    0.000000000    
   Mg      0.000000000    0.004397026    0.499999881    
   Mg      0.000000000    0.333303005    0.499999881    
   Mg      0.000000000    0.665437341    0.499999881    
   Mg      0.499999851    0.492933661    0.499999881    
   Mg      0.499999851    0.834517300    0.499999881    
   Mg      0.499999851    0.172506914    0.499999881    
   Si      0.082065694    0.164790750    0.226655185    
   Si      0.917933941    0.164790750    0.773344576    
   Si      0.935615957    0.834053516    0.767052472    
   Si      0.064383715    0.834053516    0.232947215    
   Si      0.563037038    0.666707695    0.230825022    
   Si      0.436962634    0.666707695    0.769174755    
   Al      0.416417152    0.331162542    0.771374941    
   Al      0.583582520    0.331162542    0.228624746    
    O      0.126809046    0.163760975    0.386100411    
    O      0.873190582    0.163760975    0.613899350    
    O      0.875346482    0.833044529    0.608861566    
    O      0.124653205    0.833044529    0.391138166    
    O      0.624441385    0.669208884    0.389705569    
    O      0.375558317    0.669208884    0.610294163    
    O      0.361592412    0.332773894    0.602240980    
    O      0.638407290    0.332773894    0.397758722    
    O      0.338934988    0.205094650    0.169576347    
    O      0.661064744    0.205094650    0.830423355    
    O      0.998367131    0.996896505    0.172742799    
    O      0.001632578    0.996896505    0.827256918    
    O      0.686360240    0.773157477    0.825764716    
    O      0.313639432    0.773157477    0.174235001    
    O      0.812489271    0.733873904    0.173389673    
    O      0.187510416    0.733873904    0.826610088    
    O      0.499133438    0.508021414    0.167211756    
    O      0.500866234    0.508021414    0.832787991    
    O      0.147260398    0.274042696    0.836235225    
    O      0.852739275    0.274042696    0.163764551    
    O      0.130489200    0.504107654    0.396603018    
    O      0.869510531    0.504107654    0.603396714    
    O      0.632514477    0.999596298    0.399994403    
    O      0.367485255    0.999596298    0.600005329    
    H      0.099491976    0.496138662    0.302668810    
    H      0.900507748    0.496138662    0.697330952    
    H      0.596113086    0.013531263    0.306537807    
    H      0.403886616    0.013531263    0.693461895    
K_POINTS automatic 
  6 3 3   0 0 0 

