 &CONTROL
   calculation     = 'vc-relax' 
   outdir          = './temp/' 
   pseudo_dir      = './../../pseudos/' 
   prefix          = 'phl-fe0' 
   verbosity       = 'high' 
   tstress         = .true. 
   tprnfor         = .true. 
 /
 &SYSTEM
   ibrav           = -12
   A               = 5.29899 
   B               = 9.19537 
   C               = 10.20856 
   cosAC           = -0.17756524 
   nat             = 44
   ntyp            = 6
   ecutwfc         = 60 
   ecutrho         = 480 
   occupations     = 'fixed' 
   vdw_corr        = 'grimme-d2' 
 /
 &ELECTRONS
 /
 &IONS
 /
 &CELL
   cell_dofree     = 'ibrav' 
 /
ATOMIC_SPECIES
   Al   26.98154  Al.pbe-n-kjpaw_psl.1.0.0.UPF 
    H    1.00794  H.pbe-kjpaw_psl.1.0.0.UPF 
    K   39.09830  K.pbe-spn-kjpaw_psl.1.0.0.UPF 
   Mg   24.30500  Mg.pbe-spnl-kjpaw_psl.1.0.0.UPF 
    O   15.99940  O.pbe-n-kjpaw_psl.1.0.0.UPF 
   Si   28.08550  Si.pbe-n-kjpaw_psl.1.0.0.UPF 
ATOMIC_POSITIONS crystal 
    K      0.000000000    0.496320963    0.000000000    
    K      0.500000000    0.001778897    0.000000000    
   Mg      0.000000000    0.004358114    0.500000000    
   Mg      0.000000000    0.333378911    0.500000000    
   Mg      0.000000000    0.664907634    0.500000000    
   Mg      0.500000000    0.493171930    0.500000000    
   Mg      0.500000000    0.834860325    0.500000000    
   Mg      0.500000000    0.172181681    0.500000000    
   Si      0.083185025    0.164906815    0.222862765    
   Si      0.916814983    0.164906815    0.777137280    
   Si      0.934224069    0.834285140    0.771069646    
   Si      0.065775938    0.834285140    0.228930354    
   Si      0.564450920    0.666527867    0.226931006    
   Si      0.435549051    0.666527867    0.773068964    
   Al      0.415386021    0.330927700    0.775651991    
   Al      0.584613979    0.330927700    0.224347994    
    O      0.127268896    0.163458318    0.385187238    
    O      0.872731090    0.163458318    0.614812791    
    O      0.874509275    0.833055139    0.610079169    
    O      0.125490740    0.833055139    0.389920801    
    O      0.625376940    0.669194162    0.388615370    
    O      0.374623030    0.669194162    0.611384630    
    O      0.361127704    0.333035171    0.603693902    
    O      0.638872266    0.333035171    0.396306098    
    O      0.344082922    0.201520279    0.166022867    
    O      0.655917108    0.201520279    0.833977103    
    O      0.993265867    0.997141540    0.167702004    
    O      0.006734113    0.997141540    0.832297981    
    O      0.681426466    0.776452661    0.830935538    
    O      0.318573534    0.776452661    0.169064462    
    O      0.817509413    0.730376124    0.167966694    
    O      0.182490572    0.730376124    0.832033336    
    O      0.494441152    0.507780790    0.162431344    
    O      0.505558848    0.507780790    0.837568700    
    O      0.141942874    0.277615935    0.840580523    
    O      0.858057141    0.277615935    0.159419492    
    O      0.130190983    0.504241824    0.393347383    
    O      0.869809031    0.504241824    0.606652617    
    O      0.632413805    0.999226451    0.396884352    
    O      0.367586225    0.999226451    0.603115618    
    H      0.098689884    0.493810356    0.297808290    
    H      0.901310146    0.493810356    0.702191710    
    H      0.595198929    0.015962154    0.302010626    
    H      0.404801100    0.015962154    0.697989345    
K_POINTS automatic 
  6 3 3   0 0 0 

