 &CONTROL
   calculation     = 'relax' 
   outdir          = './temp/' 
   pseudo_dir      = './../../../pseudos/' 
   prefix          = 'phl-ti1-ti2-v4x2' 
   verbosity       = 'high' 
   restart_mode    = 'restart'
 /
 &SYSTEM
   ibrav           = -12
   A               = 10.6512136459 
   B               = 9.2452592850 
   C               = 10.4217920303 
   cosAC           = -0.1759856935 
   nat             = 87
   ntyp            = 7
   ecutwfc         = 60 
   ecutrho         = 480 
   occupations     = 'smearing' 
   degauss         = 0.001 
   smearing        = 'gaussian' 
   nspin           = 2 
   starting_magnetization(2) = 0.3
   vdw_corr        = 'grimme-d3' 
 /
 &ELECTRONS
 /
 &IONS
 /
ATOMIC_SPECIES
   Al   26.98154  Al.pbe-n-kjpaw_psl.1.0.0.UPF 
   Ti   47.86700  Ti.pbe-spn-kjpaw_psl.1.0.0.UPF 
    H    1.00794  H.pbe-kjpaw_psl.1.0.0.UPF 
    K   39.09830  K.pbe-spn-kjpaw_psl.1.0.0.UPF 
   Mg   24.30500  Mg.pbe-spnl-kjpaw_psl.1.0.0.UPF 
    O   15.99940  O.pbe-n-kjpaw_psl.1.0.0.UPF 
   Si   28.08550  Si.pbe-n-kjpaw_psl.1.0.0.UPF 
ATOMIC_POSITIONS crystal 
    K      0.000000000    0.489645422    0.000000000    
    K      0.500000000    0.489645422    0.000000000    
    K      0.250000060    0.007481232    0.000000000    
    K      0.750000060    0.007481232    0.000000000    
   Mg      0.000000000    0.004447787    0.499999881    
   Mg      0.500000000    0.004447787    0.499999881    
   Mg      0.500000000    0.333186328    0.499999881    
   Mg      0.000000000    0.665289104    0.499999881    
   Mg      0.500000000    0.665289104    0.499999881    
   Mg      0.750000119    0.492969036    0.499999881    
   Mg      0.250000149    0.834560871    0.499999881    
   Mg      0.750000119    0.834560871    0.499999881    
   Mg      0.250000149    0.172567919    0.499999881    
   Mg      0.750000119    0.172567919    0.499999881    
   Si      0.042303957    0.164932609    0.226665989    
   Si      0.542303979    0.164932609    0.226665989    
   Si      0.457696348    0.164932609    0.773333788    
   Si      0.957696319    0.164932609    0.773333788    
   Si      0.467044950    0.834179640    0.766702592    
   Si      0.967044950    0.834179640    0.766702592    
   Si      0.032955348    0.834179640    0.233297139    
   Si      0.532955348    0.834179640    0.233297139    
   Si      0.282328188    0.666543424    0.231096491    
   Si      0.782328188    0.666543424    0.231096491    
   Si      0.217672095    0.666543424    0.768903255    
   Si      0.717672110    0.666543424    0.768903255    
   Al      0.206885561    0.330969334    0.771315217    
   Al      0.706885576    0.330969334    0.771315217    
   Al      0.293114722    0.330969334    0.228684545    
   Al      0.793114722    0.330969334    0.228684545    
    O      0.063771769    0.163897693    0.385973305    
    O      0.563771784    0.163897693    0.385973305    
    O      0.436228514    0.163897693    0.614026427    
    O      0.936228514    0.163897693    0.614026427    
    O      0.437248141    0.833167195    0.608710885    
    O      0.937248111    0.833167195    0.608710885    
    O      0.062752165    0.833167195    0.391288847    
    O      0.562752187    0.833167195    0.391288847    
    O      0.312605351    0.669117868    0.389782667    
    O      0.812605381    0.669117868    0.389782667    
    O      0.187394947    0.669117868    0.610217094    
    O      0.687394977    0.669117868    0.610217094    
    O      0.180397853    0.332671046    0.602312386    
    O      0.680397868    0.332671046    0.602312386    
    O      0.319602460    0.332671046    0.397687346    
    O      0.819602489    0.332671046    0.397687346    
    O      0.171048909    0.205058962    0.169814274    
    O      0.671048880    0.205058962    0.169814274    
    O      0.328951359    0.205058962    0.830185413    
    O      0.828951359    0.205058962    0.830185413    
    O      0.001098275    0.996978462    0.172948703    
    O      0.501098275    0.996978462    0.172948703    
    O      0.498902023    0.996978462    0.827051044    
    O      0.998902023    0.996978462    0.827051044    
    O      0.342856318    0.771798551    0.825490117    
    O      0.842856288    0.771798551    0.825490117    
    O      0.157143965    0.771798551    0.174509645    
    O      0.657143950    0.771798551    0.174509645    
    O      0.406598777    0.735182822    0.173709705    
    O      0.906598806    0.735182822    0.173709705    
    O      0.093401529    0.735182822    0.826290071    
    O      0.593401551    0.735182822    0.826290071    
    O      0.251727760    0.507842422    0.167502537    
    O      0.751727760    0.507842422    0.167502537    
    O      0.248272508    0.507842422    0.832497239    
    O      0.748272538    0.507842422    0.832497239    
    O      0.072045967    0.274165839    0.836075246    
    O      0.572045982    0.274165839    0.836075246    
    O      0.427954346    0.274165839    0.163924485    
    O      0.927954316    0.274165839    0.163924485    
    O      0.065663889    0.504135251    0.396702707    
    O      0.565663874    0.504135251    0.396702707    
    O      0.434336424    0.504135251    0.603297055    
    O      0.934336424    0.504135251    0.603297055    
    O      0.316688418    0.999572933    0.399936974    
    O      0.816688418    0.999572933    0.399936974    
    O      0.183311909    0.999572933    0.600062788    
    O      0.683311939    0.999572933    0.600062788    
    H      0.050480340    0.495247006    0.302903235    
    H      0.550480366    0.495247006    0.302903235    
    H      0.449519992    0.495247006    0.697096467    
    H      0.949519992    0.495247006    0.697096467    
    H      0.298625797    0.014462528    0.306693286    
    H      0.798625827    0.014462528    0.306693286    
    H      0.201374501    0.014462528    0.693306506    
    H      0.701374531    0.014462528    0.693306506    
   Ti      0.000000000    0.333186328    0.499999881    
K_POINTS automatic 
  3 3 3   0 0 0 

