 &CONTROL
   calculation     = 'vc-relax' 
   outdir          = './temp/' 
   pseudo_dir      = './../../../pseudos/' 
   prefix          = 'phl-fe1-fe2-nspin' 
   verbosity       = 'high' 
   tstress         = .true. 
   tprnfor         = .true. 
 /
 &SYSTEM
   ibrav           = -12
   A               = 5.29899 
   B               = 9.19537 
   C               = 10.20856 
   cosAC           = -0.17756524 
   nat             = 44
   ntyp            = 7
   ecutwfc         = 60 
   ecutrho         = 480 
   occupations     = 'smearing' 
   degauss         = 0.001 
   smearing        = 'gaussian' 
   vdw_corr        = 'grimme-d3' 
 /
 &ELECTRONS
 /
 &IONS
 /
 &CELL
   cell_dofree     = 'ibrav' 
 /
ATOMIC_SPECIES
   Al   26.98154  Al.pbe-n-kjpaw_psl.1.0.0.UPF 
   Fe   55.84500  Fe.pbe-spn-kjpaw_psl.1.0.0.UPF 
    H    1.00794  H.pbe-kjpaw_psl.1.0.0.UPF 
    K   39.09830  K.pbe-spn-kjpaw_psl.1.0.0.UPF 
   Mg   24.30500  Mg.pbe-spnl-kjpaw_psl.1.0.0.UPF 
    O   15.99940  O.pbe-n-kjpaw_psl.1.0.0.UPF 
   Si   28.08550  Si.pbe-n-kjpaw_psl.1.0.0.UPF 
ATOMIC_POSITIONS crystal 
    K      0.000000000    0.499566823    0.000000000    
    K      0.500000000    0.002969610    0.000000000    
   Mg      0.000000000    0.008581161    0.500000000    
   Mg      0.000000000    0.661299109    0.500000000    
   Mg      0.500000000    0.490649611    0.500000000    
   Mg      0.500000000    0.835112572    0.500000000    
   Mg      0.500000000    0.174615577    0.500000000    
   Si      0.085805535    0.168055460    0.223090976    
   Si      0.914194465    0.168055460    0.776909053    
   Si      0.935647964    0.835676789    0.770279229    
   Si      0.064352043    0.835676789    0.229720756    
   Si      0.562767506    0.667191088    0.226844043    
   Si      0.437232494    0.667191088    0.773155928    
   Al      0.411344826    0.332509309    0.776214719    
   Al      0.588655174    0.332509309    0.223785266    
    O      0.127352089    0.167866111    0.385910153    
    O      0.872647882    0.167866111    0.614089847    
    O      0.875346065    0.832476139    0.609344006    
    O      0.124653935    0.832476139    0.390655965    
    O      0.623842955    0.667606413    0.388794035    
    O      0.376157045    0.667606413    0.611205995    
    O      0.359886855    0.333258212    0.603933156    
    O      0.640113175    0.333258212    0.396066844    
    O      0.347401679    0.202875942    0.166110486    
    O      0.652598321    0.202875942    0.833889484    
    O      0.997068465    0.999643981    0.169680133    
    O      0.002931515    0.999643981    0.830319822    
    O      0.685363829    0.775428057    0.830707610    
    O      0.314636171    0.775428057    0.169292420    
    O      0.812859297    0.734882712    0.168097004    
    O      0.187140718    0.734882712    0.831902981    
    O      0.497445792    0.508757353    0.160962388    
    O      0.502554178    0.508757353    0.839037657    
    O      0.137837514    0.280865103    0.841880679    
    O      0.862162471    0.280865103    0.158119321    
    O      0.125824317    0.496097326    0.395514995    
    O      0.874175668    0.496097326    0.604485035    
    O      0.631787598    0.000252843    0.397377759    
    O      0.368212402    0.000252843    0.602622211    
    H      0.084244594    0.475901127    0.301032156    
    H      0.915755451    0.475901127    0.698967874    
    H      0.595149994    0.017690556    0.302538604    
    H      0.404850036    0.017690556    0.697461426    
   Fe      0.000000000    0.333131462    0.500000000    
K_POINTS automatic 
  6 3 3   0 0 0 

