 &CONTROL
   calculation     = 'vc-relax' 
   outdir          = './temp/' 
   pseudo_dir      = './../../../pseudos/' 
   prefix          = 'phl-fe1-fe2' 
   verbosity       = 'high' 
   etot_conv_thr   = 1.0D-6 
   tstress         = .true. 
   tprnfor         = .true. 
 /
 &SYSTEM
   ibrav           = -12
   A               = 5.3275146484 
   B               = 9.2677536011 
   C               = 10.4135732651 
   cosAC           = -0.1781192578 
   nat             = 44
   ntyp            = 7
   ecutwfc         = 60 
   ecutrho         = 480 
   occupations     = 'smearing' 
   degauss         = 0.001 
   smearing        = 'gaussian' 
   nspin           = 2 
   starting_magnetization(2) = 0.3
   vdw_corr        = 'grimme-d3' 
 /
 &ELECTRONS
   conv_thr        = 1.0D-8 
 /
 &IONS
 /
 &CELL
   cell_dofree     = 'ibrav' 
 /
ATOMIC_SPECIES
   Al   26.98154  Al.pbe-n-kjpaw_psl.1.0.0.UPF 
   Fe   55.84500  Fe.pbe-spn-kjpaw_psl.1.0.0.UPF 
    H    1.00794  H.pbe-kjpaw_psl.1.0.0.UPF 
    K   39.09830  K.pbe-spn-kjpaw_psl.1.0.0.UPF 
   Mg   24.30500  Mg.pbe-spnl-kjpaw_psl.1.0.0.UPF 
    O   15.99940  O.pbe-n-kjpaw_psl.1.0.0.UPF 
   Si   28.08550  Si.pbe-n-kjpaw_psl.1.0.0.UPF 
ATOMIC_POSITIONS crystal 
    K      0.000000000    0.493950874    0.000000000    
    K      0.500000119    0.002816796    0.000000000    
   Mg      0.000000182    0.006355344    0.499999940    
   Mg      0.000000182    0.666966438    0.499999940    
   Mg      0.500000298    0.495624781    0.499999940    
   Mg      0.500000298    0.835743010    0.499999940    
   Mg      0.500000298    0.170451418    0.499999940    
   Si      0.093240269    0.163269415    0.225108594    
   Si      0.906760335    0.163269415    0.774891317    
   Si      0.933410466    0.834433675    0.767131388    
   Si      0.066590175    0.834433675    0.232868493    
   Si      0.566112876    0.666440427    0.231440246    
   Si      0.433887720    0.666440427    0.768559635    
   Al      0.405295759    0.330606341    0.772066474    
   Al      0.594704926    0.330606341    0.227933392    
    O      0.137199327    0.157623172    0.384095550    
    O      0.862801313    0.157623172    0.615904391    
    O      0.874005973    0.834775269    0.608994603    
    O      0.125994682    0.834775269    0.391005307    
    O      0.627221406    0.669588506    0.390340596    
    O      0.372779161    0.669588506    0.609659314    
    O      0.359213918    0.333201796    0.601506293    
    O      0.640786707    0.333201796    0.398493528    
    O      0.351663917    0.204125896    0.169147372    
    O      0.648336709    0.204125896    0.830852449    
    O      0.008934489    0.996537149    0.169532537    
    O      0.991066158    0.996537149    0.830467343    
    O      0.687880874    0.768322110    0.825901926    
    O      0.312119782    0.768322110    0.174097970    
    O      0.810484171    0.738242030    0.173138499    
    O      0.189516440    0.738242030    0.826861382    
    O      0.511913002    0.507287204    0.167853221    
    O      0.488087565    0.507287204    0.832146645    
    O      0.133598447    0.275012016    0.835176945    
    O      0.866402209    0.275012016    0.164822951    
    O      0.136879086    0.511624634    0.393167824    
    O      0.863121510    0.511624634    0.606832087    
    O      0.634610116    0.999530554    0.398921907    
    O      0.365390569    0.999530554    0.601077974    
    H      0.105608292    0.490831792    0.300759465    
    H      0.894392371    0.490831792    0.699240446    
    H      0.595885575    0.014778626    0.305645406    
    H      0.404115051    0.014778626    0.694354475    
   Fe      0.000000182    0.335622966    0.499999940    
K_POINTS automatic 
  6 3 3   0 0 0 

