 &CONTROL
   calculation     = 'vc-relax' 
   outdir          = './temp/' 
   pseudo_dir      = './../../../pseudos/' 
   prefix          = 'phl-ti1-ti1' 
   verbosity       = 'high' 
 /
 &SYSTEM
   ibrav           = -12
   A               = 5.29899 
   B               = 9.19537 
   C               = 10.20856 
   cosAC           = -0.17756524 
   nat             = 43
   ntyp            = 7
   ecutwfc         = 60 
   ecutrho         = 480 
   occupations     = 'smearing' 
   degauss         = 0.001 
   smearing        = 'gaussian' 
   nspin           = 2 
   starting_magnetization(2) = 0.3
   vdw_corr        = 'grimme-d3' 
 /
 &ELECTRONS
 /
 &IONS
 /
 &CELL
   cell_dofree     = 'ibrav' 
 /
ATOMIC_SPECIES
   Al   26.98154  Al.pbe-n-kjpaw_psl.1.0.0.UPF 
   Ti   47.86700  Ti.pbe-spn-kjpaw_psl.1.0.0.UPF 
    H    1.00794  H.pbe-kjpaw_psl.1.0.0.UPF 
    K   39.09830  K.pbe-spn-kjpaw_psl.1.0.0.UPF 
   Mg   24.30500  Mg.pbe-spnl-kjpaw_psl.1.0.0.UPF 
    O   15.99940  O.pbe-n-kjpaw_psl.1.0.0.UPF 
   Si   28.08550  Si.pbe-n-kjpaw_psl.1.0.0.UPF 
ATOMIC_POSITIONS crystal 
    K      0.000000000    0.505430460    0.000000000    
    K      0.500000000    0.989382565    0.000000000    
   Mg      0.000000000    0.653308749    0.500000000    
   Mg      0.500000000    0.493783146    0.500000000    
   Mg      0.500000000    0.831638634    0.500000000    
   Mg      0.500000000    0.193914101    0.500000000    
   Si      0.088261977    0.160839096    0.213176519    
   Si      0.911737978    0.160839096    0.786823511    
   Si      0.943430841    0.832837224    0.772002399    
   Si      0.056569163    0.832837224    0.227997586    
   Si      0.558610976    0.663627803    0.227546975    
   Si      0.441389024    0.663627803    0.772453010    
   Al      0.405540466    0.333851159    0.775201142    
   Al      0.594459534    0.333851159    0.224798888    
    O      0.123655342    0.145135567    0.379272491    
    O      0.876344621    0.145135567    0.620727539    
    O      0.883309126    0.847764611    0.608193219    
    O      0.116690867    0.847764611    0.391806811    
    O      0.626573980    0.675876439    0.388651133    
    O      0.373426020    0.675876439    0.611348867    
    O      0.361994177    0.336778760    0.605576515    
    O      0.638005853    0.336778760    0.394423485    
    O      0.360446066    0.195068046    0.169133246    
    O      0.639553964    0.195068046    0.830866694    
    O      0.000790238    0.994772434    0.159803957    
    O      0.999209762    0.994772434    0.840196013    
    O      0.695589304    0.768268049    0.828258038    
    O      0.304410726    0.768268049    0.171741962    
    O      0.796057284    0.743870854    0.166939020    
    O      0.203942701    0.743870854    0.833060980    
    O      0.513961494    0.507566392    0.156191990    
    O      0.486038446    0.507566392    0.843807995    
    O      0.135839283    0.273389041    0.842741609    
    O      0.864160717    0.273389041    0.157258362    
    O      0.147498280    0.529113710    0.374895424    
    O      0.852501750    0.529113710    0.625104606    
    O      0.642617166    0.006538749    0.399848849    
    O      0.357382834    0.006538749    0.600151122    
    H      0.049551807    0.439046144    0.372255772    
    H      0.950448215    0.439046144    0.627744198    
    H      0.595305324    0.033055313    0.306098282    
    H      0.404694706    0.033055313    0.693901718    
   Ti      0.000000000    0.024607599    0.500000000    
K_POINTS automatic 
  6 3 3   0 0 0 

