 &CONTROL
   calculation     = 'vc-relax' 
   outdir          = './temp/' 
   pseudo_dir      = './../../../pseudos/' 
   prefix          = 'phl-fe1-fe4' 
   verbosity       = 'high' 
 /
 &SYSTEM
   ibrav           = -12
   A               = 5.29899 
   B               = 9.19537 
   C               = 10.20856 
   cosAC           = -0.17756524 
   nat             = 44
   ntyp            = 7
   ecutwfc         = 60 
   ecutrho         = 480 
   occupations     = 'smearing' 
   degauss         = 0.001 
   smearing        = 'gaussian' 
   nspin           = 2 
   starting_magnetization(2) = 0.3
   vdw_corr        = 'grimme-d3' 
 /
 &ELECTRONS
 /
 &IONS
 /
 &CELL
   cell_dofree     = 'ibrav' 
 /
ATOMIC_SPECIES
   Al   26.98154  Al.pbe-n-kjpaw_psl.1.0.0.UPF 
   Fe   55.84500  Fe.pbe-spn-kjpaw_psl.1.0.0.UPF 
    H    1.00794  H.pbe-kjpaw_psl.1.0.0.UPF 
    K   39.09830  K.pbe-spn-kjpaw_psl.1.0.0.UPF 
   Mg   24.30500  Mg.pbe-spnl-kjpaw_psl.1.0.0.UPF 
    O   15.99940  O.pbe-n-kjpaw_psl.1.0.0.UPF 
   Si   28.08550  Si.pbe-n-kjpaw_psl.1.0.0.UPF 
ATOMIC_POSITIONS crystal 
    K      0.000000000    0.493295640    0.000000000    
    K      0.500000000    0.004669941    0.000000000    
   Mg      0.000000000    0.004002540    0.500000000    
   Mg      0.000000000    0.332543880    0.500000000    
   Mg      0.000000000    0.665901065    0.500000000    
   Mg      0.500000000    0.835244417    0.500000000    
   Mg      0.500000000    0.169380531    0.500000000    
   Si      0.082757793    0.165090442    0.221973702    
   Si      0.917242169    0.165090442    0.778026342    
   Si      0.934830427    0.834290266    0.772066295    
   Si      0.065169603    0.834290266    0.227933705    
   Si      0.564405322    0.667434394    0.225976169    
   Si      0.435594648    0.667434394    0.774023831    
   Al      0.416008472    0.331242621    0.776334405    
   Al      0.583991528    0.331242621    0.223665610    
    O      0.127572194    0.163195267    0.384416550    
    O      0.872427762    0.163195267    0.615583479    
    O      0.874307156    0.833407581    0.610969484    
    O      0.125692874    0.833407581    0.389030516    
    O      0.627661884    0.673839033    0.387576431    
    O      0.372338086    0.673839033    0.612423539    
    O      0.360143363    0.328464895    0.603668392    
    O      0.639856637    0.328464895    0.396331608    
    O      0.341960669    0.203347549    0.164277971    
    O      0.658039331    0.203347549    0.835722029    
    O      0.995245218    0.997328520    0.166886389    
    O      0.004754756    0.997328520    0.833113611    
    O      0.683890939    0.775006711    0.832387090    
    O      0.316109061    0.775006711    0.167612910    
    O      0.815200448    0.732270241    0.166108087    
    O      0.184799567    0.732270241    0.833891928    
    O      0.496602505    0.508086741    0.162578076    
    O      0.503397465    0.508086741    0.837421954    
    O      0.144181058    0.276519269    0.841696620    
    O      0.855818987    0.276519269    0.158303410    
    O      0.118139930    0.503697813    0.391605228    
    O      0.881860077    0.503697813    0.608394742    
    O      0.632968307    0.999201238    0.397193998    
    O      0.367031693    0.999201238    0.602805972    
    H      0.100863576    0.495487511    0.296055555    
    H      0.899136424    0.495487511    0.703944445    
    H      0.595715046    0.013649085    0.301991165    
    H      0.404284924    0.013649085    0.698008835    
   Fe      0.500000000    0.491838723    0.500000000    
K_POINTS automatic 
  6 3 3   0 0 0 

