 &CONTROL
   calculation     = 'vc-relax' 
   outdir          = './temp/' 
   pseudo_dir      = './../../../pseudos/' 
   prefix          = 'phl-fe1-fe2-nspin' 
   verbosity       = 'high' 
   etot_conv_thr   = 1.0D-6 
   tstress         = .true. 
   tprnfor         = .true. 
 /
 &SYSTEM
   ibrav           = -12
   A               = 5.3066363335 
   B               = 9.1824398041 
   C               = 10.4318008423 
   cosAC           = -0.1772097116 
   nat             = 44
   ntyp            = 7
   ecutwfc         = 60 
   ecutrho         = 480 
   occupations     = 'smearing' 
   degauss         = 0.001 
   smearing        = 'gaussian' 
   vdw_corr        = 'grimme-d3' 
 /
 &ELECTRONS
 /
 &IONS
 /
 &CELL
   cell_dofree     = 'ibrav' 
 /
ATOMIC_SPECIES
   Al   26.98154  Al.pbe-n-kjpaw_psl.1.0.0.UPF 
   Fe   55.84500  Fe.pbe-spn-kjpaw_psl.1.0.0.UPF 
    H    1.00794  H.pbe-kjpaw_psl.1.0.0.UPF 
    K   39.09830  K.pbe-spn-kjpaw_psl.1.0.0.UPF 
   Mg   24.30500  Mg.pbe-spnl-kjpaw_psl.1.0.0.UPF 
    O   15.99940  O.pbe-n-kjpaw_psl.1.0.0.UPF 
   Si   28.08550  Si.pbe-n-kjpaw_psl.1.0.0.UPF 
ATOMIC_POSITIONS crystal 
    K      0.000000000    0.497994572    0.000000000    
    K      0.500000179    0.004666448    0.000000000    
   Mg      0.000000000    0.008896201    0.499999911    
   Mg      0.000000000    0.661742449    0.499999911    
   Mg      0.500000060    0.490042657    0.499999911    
   Mg      0.500000060    0.834858477    0.499999911    
   Mg      0.500000060    0.174477383    0.499999911    
   Si      0.088362291    0.168139726    0.227583721    
   Si      0.911637843    0.168139726    0.772416174    
   Si      0.936044455    0.835554659    0.765559256    
   Si      0.063955702    0.835554659    0.234440580    
   Si      0.562206388    0.667033732    0.231421307    
   Si      0.437793791    0.667033732    0.768578529    
   Al      0.408477604    0.332054794    0.771602511    
   Al      0.591522515    0.332054794    0.228397340    
    O      0.127986535    0.168221086    0.387095064    
    O      0.872013569    0.168221086    0.612904787    
    O      0.875421822    0.832368731    0.607876241    
    O      0.124578312    0.832368731    0.392123550    
    O      0.623202443    0.667681694    0.390067458    
    O      0.376797706    0.667681694    0.609932423    
    O      0.359040737    0.332904011    0.602691829    
    O      0.640959442    0.332904011    0.397308052    
    O      0.350054651    0.202226281    0.171433374    
    O      0.649945498    0.202226281    0.828566432    
    O      0.998649418    0.999770522    0.175092489    
    O      0.001350715    0.999770522    0.824907303    
    O      0.687282503    0.774143279    0.825264513    
    O      0.312717646    0.774143279    0.174735352    
    O      0.811059237    0.736055911    0.173848584    
    O      0.188940927    0.736055911    0.826151252    
    O      0.499286592    0.508280635    0.166275278    
    O      0.500713527    0.508280635    0.833724618    
    O      0.134990513    0.281166285    0.836499453    
    O      0.865009606    0.281166285    0.163500398    
    O      0.126722157    0.496282369    0.398251653    
    O      0.873277962    0.496282369    0.601748228    
    O      0.632496297    0.000075204    0.399768203    
    O      0.367503881    0.000075204    0.600231588    
    H      0.086492747    0.477793783    0.305411100    
    H      0.913507462    0.477793783    0.694588780    
    H      0.595947683    0.017353682    0.306875616    
    H      0.404052526    0.017353682    0.693124235    
   Fe      0.000000000    0.333102703    0.499999911    
K_POINTS automatic 
  6 3 3   0 0 0 

