 &CONTROL
   calculation     = 'vc-relax' 
   outdir          = './temp/' 
   pseudo_dir      = './../../../pseudos/' 
   prefix          = 'phl-ti1-ti2-v4' 
   verbosity       = 'high' 
 /
 &SYSTEM
   ibrav           = -12
   A               = 5.325606823 
   B               = 9.245259285 
   C               = 10.421792030 
   cosAC           = -0.175985693 
   nat             = 43
   ntyp            = 7
   ecutwfc         = 60 
   ecutrho         = 480 
   occupations     = 'smearing' 
   degauss         = 0.001 
   smearing        = 'gaussian' 
   nspin           = 2 
   starting_magnetization(2) = 0.3
   vdw_corr        = 'grimme-d3' 
 /
 &ELECTRONS
 /
 &IONS
 /
 &CELL
   cell_dofree     = 'ibrav' 
 /
ATOMIC_SPECIES
   Al   26.98154  Al.pbe-n-kjpaw_psl.1.0.0.UPF 
   Ti   47.86700  Ti.pbe-spn-kjpaw_psl.1.0.0.UPF 
    H    1.00794  H.pbe-kjpaw_psl.1.0.0.UPF 
    K   39.09830  K.pbe-spn-kjpaw_psl.1.0.0.UPF 
   Mg   24.30500  Mg.pbe-spnl-kjpaw_psl.1.0.0.UPF 
    O   15.99940  O.pbe-n-kjpaw_psl.1.0.0.UPF 
   Si   28.08550  Si.pbe-n-kjpaw_psl.1.0.0.UPF 
ATOMIC_POSITIONS crystal 
    K      0.000000000    0.497341692    0.000000000    
    K      0.500000119    0.007577704    0.000000000    
   Mg      0.000000180    0.999296546    0.499999881    
   Mg      0.000000180    0.665733159    0.499999881    
   Mg      0.500000298    0.826552749    0.499999881    
   Mg      0.500000298    0.171239138    0.499999881    
   Si      0.086474031    0.166488886    0.225334078    
   Si      0.913526595    0.166488886    0.774665713    
   Si      0.927662551    0.832278311    0.768699646    
   Si      0.072338022    0.832278311    0.231300056    
   Si      0.575144351    0.668722689    0.230823010    
   Si      0.424856216    0.668722689    0.769176722    
   Al      0.404389232    0.332742304    0.774147034    
   Al      0.595611334    0.332742304    0.225852713    
    O      0.125845775    0.171176136    0.387097806    
    O      0.874154806    0.171176136    0.612901926    
    O      0.872245014    0.831182897    0.610367179    
    O      0.127755597    0.831182897    0.389632583    
    O      0.638414443    0.676065564    0.387350678    
    O      0.361586124    0.676065564    0.612649083    
    O      0.328820765    0.322592109    0.602032423    
    O      0.671179831    0.322592109    0.397967279    
    O      0.348179609    0.207894251    0.174775481    
    O      0.651820958    0.207894251    0.825224221    
    O      0.013990917    0.997714520    0.175591990    
    O      0.986009657    0.997714520    0.824407756    
    O      0.679331541    0.771569610    0.827531159    
    O      0.320669055    0.771569610    0.172468618    
    O      0.816916168    0.738648057    0.167661980    
    O      0.183084443    0.738648057    0.832337797    
    O      0.515949428    0.508581579    0.169333994    
    O      0.484051108    0.508581579    0.830665767    
    O      0.146560892    0.268223882    0.842534125    
    O      0.853439748    0.268223882    0.157465607    
    O      0.116214223    0.492958546    0.392401129    
    O      0.883786380    0.492958546    0.607598662    
    O      0.633777618    0.000714064    0.402432293    
    O      0.366223037    0.000714064    0.597567499    
    H      0.302420586    0.498805285    0.401995033    
    H      0.697580040    0.498805285    0.598004699    
    H      0.602545679    0.010572159    0.308593929    
    H      0.397454947    0.010572159    0.691405892    
   Ti      0.000000180    0.345423311    0.499999881    
K_POINTS automatic 
  6 3 3   0 0 0 

