 &CONTROL
   calculation     = 'vc-relax' 
   outdir          = './temp/' 
   pseudo_dir      = './../../../pseudos/' 
   prefix          = 'phl-ti1-ti1' 
   verbosity       = 'high' 
   restart_mode    = 'restart'
 /
 &SYSTEM
   ibrav           = -12
   A               = 5.29899 
   B               = 9.19537 
   C               = 10.20856 
   cosAC           = -0.17756524 
   nat             = 44
   ntyp            = 7
   ecutwfc         = 60 
   ecutrho         = 480 
   occupations     = 'smearing' 
   degauss         = 0.001 
   smearing        = 'gaussian' 
   nspin           = 2 
   starting_magnetization(2) = 0.3
   vdw_corr        = 'grimme-d3' 
 /
 &ELECTRONS
 /
 &IONS
 /
 &CELL
   cell_dofree     = 'ibrav' 
 /
ATOMIC_SPECIES
   Al   26.98154  Al.pbe-n-kjpaw_psl.1.0.0.UPF 
   Ti   47.86700  Ti.pbe-spn-kjpaw_psl.1.0.0.UPF 
    H    1.00794  H.pbe-kjpaw_psl.1.0.0.UPF 
    K   39.09830  K.pbe-spn-kjpaw_psl.1.0.0.UPF 
   Mg   24.30500  Mg.pbe-spnl-kjpaw_psl.1.0.0.UPF 
    O   15.99940  O.pbe-n-kjpaw_psl.1.0.0.UPF 
   Si   28.08550  Si.pbe-n-kjpaw_psl.1.0.0.UPF 
ATOMIC_POSITIONS crystal 
    K      0.000000000    0.493411809    0.000000000    
    K      0.500000000    0.004119978    0.000000000    
   Mg      0.000000000    0.335032552    0.500000000    
   Mg      0.000000000    0.662604809    0.500000000    
   Mg      0.500000000    0.493131042    0.500000000    
   Mg      0.500000000    0.832295537    0.500000000    
   Mg      0.500000000    0.175081968    0.500000000    
   Si      0.084386736    0.166520283    0.220068082    
   Si      0.915613234    0.166520283    0.779931962    
   Si      0.933374584    0.833367765    0.773208857    
   Si      0.066625401    0.833367765    0.226791173    
   Si      0.564258456    0.666578710    0.225009441    
   Si      0.435741574    0.666578710    0.774990559    
   Al      0.414989144    0.331119806    0.777339101    
   Al      0.585010827    0.331119806    0.222660899    
    O      0.131611332    0.170959994    0.382617205    
    O      0.868388653    0.170959994    0.617382824    
    O      0.870196998    0.826108038    0.612136960    
    O      0.129803017    0.826108038    0.387863040    
    O      0.625828326    0.669332266    0.387001246    
    O      0.374171704    0.669332266    0.612998784    
    O      0.360745162    0.333306193    0.604935050    
    O      0.639254808    0.333306193    0.395064920    
    O      0.343228906    0.203353450    0.161884025    
    O      0.656771123    0.203353450    0.838115931    
    O      0.997669041    0.997460961    0.168522313    
    O      0.002330971    0.997460961    0.831477642    
    O      0.682499588    0.775197327    0.833962917    
    O      0.317500383    0.775197327    0.166037112    
    O      0.815365434    0.732303917    0.165904850    
    O      0.184634581    0.732303917    0.834095180    
    O      0.495732188    0.507830083    0.160720810    
    O      0.504267752    0.507830083    0.839279175    
    O      0.143878475    0.276740521    0.843749225    
    O      0.856121540    0.276740521    0.156250805    
    O      0.131845742    0.503642797    0.393963039    
    O      0.868154287    0.503642797    0.606036961    
    O      0.622976363    0.999817252    0.394460201    
    O      0.377023667    0.999817252    0.605539799    
    H      0.099588633    0.495009243    0.298188984    
    H      0.900411427    0.495009243    0.701811016    
    H      0.588794649    0.012020098    0.298355192    
    H      0.411205351    0.012020098    0.701644778    
   Ti      0.000000000    0.002979991    0.500000000    
K_POINTS automatic 
  6 3 3   0 0 0 

