 &CONTROL
   calculation     = 'vc-relax' 
   outdir          = './temp/' 
   pseudo_dir      = './../../../pseudos/' 
   prefix          = 'phl-fe1-fe4x2' 
   verbosity       = 'high' 
   restart_mode    = 'restart'
   tstress         = .true. 
   tprnfor         = .true. 
 /
 &SYSTEM
   ibrav           = -12
   A               = 10.67251396 
   B               = 9.277712822 
   C               = 10.40509224 
   cosAC           = -0.174314173 
   nat             = 88
   ntyp            = 8
   ecutwfc         = 60 
   ecutrho         = 480 
   occupations     = 'smearing' 
   degauss         = 0.001 
   smearing        = 'gaussian' 
   nspin           = 2 
   starting_magnetization(2) = 0.3
   starting_magnetization(3) = -0.3
   vdw_corr        = 'grimme-d3' 
 /
 &ELECTRONS
 /
 &IONS
 /
 &CELL
   cell_dofree     = 'ibrav' 
 /
ATOMIC_SPECIES
   Al   26.98154  Al.pbe-n-kjpaw_psl.1.0.0.UPF 
  Fe1   55.84500  Fe.pbe-spn-kjpaw_psl.1.0.0.UPF 
  Fe2   55.84500  Fe.pbe-spn-kjpaw_psl.1.0.0.UPF 
    H    1.00794  H.pbe-kjpaw_psl.1.0.0.UPF 
    K   39.09830  K.pbe-spn-kjpaw_psl.1.0.0.UPF 
   Mg   24.30500  Mg.pbe-spnl-kjpaw_psl.1.0.0.UPF 
    O   15.99940  O.pbe-n-kjpaw_psl.1.0.0.UPF 
   Si   28.08550  Si.pbe-n-kjpaw_psl.1.0.0.UPF 
ATOMIC_POSITIONS crystal 
    K      0.000000000    0.488726020    0.000000000    
    K      0.500000000    0.488726020    0.000000000    
    K      0.249999985    0.009291576    0.000000000    
    K      0.750000000    0.009291576    0.000000000    
   Mg      0.000000000    0.003998075    0.499999970    
   Mg      0.500000000    0.003998075    0.499999970    
   Mg      0.000000000    0.332300454    0.499999970    
   Mg      0.500000000    0.332300454    0.499999970    
   Mg      0.000000000    0.665892661    0.499999970    
   Mg      0.500000000    0.665892661    0.499999970    
   Mg      0.250000030    0.835023582    0.499999970    
   Mg      0.750000000    0.835023582    0.499999970    
   Mg      0.250000030    0.169426948    0.499999970    
   Mg      0.750000000    0.169426948    0.499999970    
  Fe1      0.250000030    0.491047919    0.499999970    
  Fe2      0.750000000    0.491047919    0.499999970    
   Si      0.042252805    0.164724678    0.226257876    
   Si      0.542252779    0.164724678    0.226257876    
   Si      0.457747251    0.164724678    0.773742080    
   Si      0.957747221    0.164724678    0.773742080    
   Si      0.466589332    0.834290802    0.767548263    
   Si      0.966589332    0.834290802    0.767548263    
   Si      0.033410724    0.834290802    0.232451662    
   Si      0.533410728    0.834290802    0.232451662    
   Si      0.283195108    0.667699575    0.230849430    
   Si      0.783195138    0.667699575    0.230849430    
   Si      0.216804951    0.667699575    0.769150496    
   Si      0.716804981    0.667699575    0.769150496    
   Al      0.206790969    0.331340909    0.771483004    
   Al      0.706790984    0.331340909    0.771483004    
   Al      0.293209106    0.331340909    0.228516951    
   Al      0.793209076    0.331340909    0.228516951    
    O      0.064046800    0.162995085    0.385809511    
    O      0.564046800    0.162995085    0.385809511    
    O      0.435953230    0.162995085    0.614190400    
    O      0.935953259    0.162995085    0.614190400    
    O      0.436928242    0.833467603    0.609291017    
    O      0.936928272    0.833467603    0.609291017    
    O      0.063071832    0.833467603    0.390708894    
    O      0.563071847    0.833467603    0.390708894    
    O      0.314247489    0.673893273    0.389605492    
    O      0.814247489    0.673893273    0.389605492    
    O      0.185752571    0.673893273    0.610394359    
    O      0.685752571    0.673893273    0.610394359    
    O      0.179323882    0.327939272    0.601694942    
    O      0.679323912    0.327939272    0.601694942    
    O      0.320676178    0.327939272    0.398304939    
    O      0.820676208    0.327939272    0.398304939    
    O      0.170066595    0.207764223    0.169181049    
    O      0.670066595    0.207764223    0.169181049    
    O      0.329933465    0.207764223    0.830818892    
    O      0.829933465    0.207764223    0.830818892    
    O      0.003117502    0.996942043    0.172054574    
    O      0.503117502    0.996942043    0.172054574    
    O      0.496882528    0.996942043    0.827945352    
    O      0.996882558    0.996942043    0.827945352    
    O      0.343035251    0.770481765    0.826447368    
    O      0.843035221    0.770481765    0.826447368    
    O      0.156964809    0.770481765    0.173552558    
    O      0.656964779    0.770481765    0.173552558    
    O      0.406584263    0.736812949    0.172298923    
    O      0.906584263    0.736812949    0.172298923    
    O      0.093415819    0.736812949    0.827700973    
    O      0.593415797    0.736812949    0.827700973    
    O      0.253864288    0.508451343    0.168934345    
    O      0.753864288    0.508451343    0.168934345    
    O      0.246135786    0.508451343    0.831065595    
    O      0.746135771    0.508451343    0.831065595    
    O      0.072999589    0.272177547    0.836452544    
    O      0.572999597    0.272177547    0.836452544    
    O      0.427000493    0.272177547    0.163547412    
    O      0.927000523    0.272177547    0.163547412    
    O      0.060256600    0.503534377    0.394908667    
    O      0.560256600    0.503534377    0.394908667    
    O      0.439743459    0.503534377    0.605091214    
    O      0.939743459    0.503534377    0.605091214    
    O      0.317193657    0.999336541    0.399852306    
    O      0.817193627    0.999336541    0.399852306    
    O      0.182806402    0.999336541    0.600147545    
    O      0.682806373    0.999336541    0.600147545    
    H      0.053988066    0.496725738    0.301302224    
    H      0.553988039    0.496725738    0.301302224    
    H      0.446011990    0.496725738    0.698697627    
    H      0.946012020    0.496725738    0.698697627    
    H      0.299763858    0.013619342    0.306411952    
    H      0.799763858    0.013619342    0.306411952    
    H      0.200236216    0.013619342    0.693587959    
    H      0.700236201    0.013619342    0.693587959    
K_POINTS automatic 
  3 3 3   0 0 0 

