 &CONTROL
   calculation     = 'vc-relax' 
   outdir          = './temp/' 
   pseudo_dir      = './../../../pseudos/' 
   prefix          = 'phl-fe1-fe1' 
   verbosity       = 'high' 
   restart_mode    = 'restart' 
 /
 &SYSTEM
   ibrav           = -12
   A               = 5.29899 
   B               = 9.19537 
   C               = 10.20856 
   cosAC           = -0.17756524 
   nat             = 44
   ntyp            = 7
   ecutwfc         = 60 
   ecutrho         = 480
   occupations     = 'smearing' 
   degauss         = 0.001 
   smearing        = 'gaussian'
   nspin           = 2 
   starting_magnetization(2) = 0.3
   vdw_corr        = 'grimme-d3' 
 /
 &ELECTRONS
 /
 &IONS
 /
 &CELL
   cell_dofree     = 'ibrav' 
 /
ATOMIC_SPECIES
   Al   26.98154  Al.pbe-n-kjpaw_psl.1.0.0.UPF 
   Fe   55.84500  Fe.pbe-spn-kjpaw_psl.1.0.0.UPF 
    H    1.00794  H.pbe-kjpaw_psl.1.0.0.UPF 
    K   39.09830  K.pbe-spn-kjpaw_psl.1.0.0.UPF 
   Mg   24.30500  Mg.pbe-spnl-kjpaw_psl.1.0.0.UPF 
    O   15.99940  O.pbe-n-kjpaw_psl.1.0.0.UPF 
   Si   28.08550  Si.pbe-n-kjpaw_psl.1.0.0.UPF 
ATOMIC_POSITIONS crystal 
K            0.000000000       0.493755162       0.000000000
K            0.500000000       0.002964204       0.000000000
Mg           0.000000000       0.333208561       0.500000000
Mg           0.000000000       0.664678574       0.500000000
Mg           0.500000000       0.492915571       0.500000000
Mg           0.500000000       0.832110047       0.500000000
Mg           0.500000000       0.174855471       0.500000000
Si           0.085127525       0.166004449       0.220679849
Si           0.914872468       0.166004449       0.779320180
Si           0.933447540       0.833492577       0.772466063
Si           0.066552438       0.833492577       0.227533937
Si           0.563916087       0.666408241       0.224928796
Si           0.436083913       0.666408241       0.775071204
Al           0.414855093       0.331202447       0.777560055
Al           0.585144937       0.331202447       0.222439915
O            0.132970780       0.169566900       0.383182734
O            0.867029190       0.169566900       0.616817296
O            0.869773924       0.827515244       0.611660779
O            0.130226061       0.827515244       0.388339192
O            0.625182390       0.668940187       0.386739522
O            0.374817580       0.668940187       0.613260508
O            0.361054569       0.333165497       0.605287313
O            0.638945460       0.333165497       0.394712716
O            0.344267011       0.202434465       0.162329271
O            0.655732989       0.202434465       0.837670684
O            0.995875299       0.997363269       0.168620303
O            0.004124697       0.997363269       0.831379712
O            0.682555974       0.775456190       0.833620071
O            0.317444056       0.775456190       0.166379943
O            0.815659285       0.731999636       0.166254193
O            0.184340745       0.731999636       0.833745837
O            0.495542645       0.507792413       0.160018682
O            0.504457295       0.507792413       0.839981318
O            0.142413884       0.276970476       0.843032241
O            0.857586145       0.276970476       0.156967774
O            0.131371081       0.503716707       0.394329369
O            0.868628919       0.503716707       0.605670631
O            0.627358258       0.999432921       0.397767693
O            0.372641742       0.999432921       0.602232277
H            0.099916331       0.494614750       0.298628032
H            0.900083721       0.494614750       0.701371968
H            0.603065610       0.014122339       0.302488595
H            0.396934360       0.014122339       0.697511375
Fe           0.000000000       0.005110223       0.500000000    
K_POINTS automatic 
  6 3 3   0 0 0 

