 &CONTROL
   calculation     = 'vc-relax' 
   outdir          = './temp/' 
   pseudo_dir      = './../../pseudos/' 
   prefix          = 'phl-fe1' 
   verbosity       = 'high' 
   tstress         = .true. 
   tprnfor         = .true. 
 /
 &SYSTEM
   ibrav           = -12
   A               = 5.2856 
   B               = 9.1788 
   C               = 10.1916 
   cosAC           = -0.174017573 
   nat             = 44
   ntyp            = 7
   ecutwfc         = 60 
   ecutrho         = 480 
   occupations     = 'smearing' 
   degauss         = 0.001 
   smearing        = 'gaussian' 
   nspin           = 2 
   starting_magnetization(2) = 0.3
   vdw_corr        = 'grimme-d2' 
 /
 &ELECTRONS
 /
 &IONS
 /
 &CELL
   cell_dofree     = 'ibrav' 
 /
ATOMIC_SPECIES
   Al   26.98154  Al.pbe-n-kjpaw_psl.1.0.0.UPF 
   Fe   55.84500  Fe.pbe-spn-kjpaw_psl.1.0.0.UPF 
    H    1.00794  H.pbe-kjpaw_psl.1.0.0.UPF 
    K   39.09830  K.pbe-spn-kjpaw_psl.1.0.0.UPF 
   Mg   24.30500  Mg.pbe-spnl-kjpaw_psl.1.0.0.UPF 
    O   15.99940  O.pbe-n-kjpaw_psl.1.0.0.UPF 
   Si   28.08550  Si.pbe-n-kjpaw_psl.1.0.0.UPF 
ATOMIC_POSITIONS crystal 
    K      0.000000000    0.497918695    0.000000000    
    K      0.500000000    0.000900651    0.000000000    
   Mg      0.000000000    0.003375469    0.500000000    
   Mg      0.000000000    0.331362844    0.500000000    
   Mg      0.000000000    0.665880322    0.500000000    
   Mg      0.500000000    0.835772932    0.500000000    
   Mg      0.500000000    0.168194130    0.500000000    
   Fe      0.500000000    0.492496312    0.500000000    
   Si      0.083636925    0.164952636    0.221731111    
   Si      0.916363060    0.164952636    0.778268874    
   Si      0.933279097    0.834513485    0.772400558    
   Si      0.066720888    0.834513485    0.227599457    
   Si      0.566012979    0.667708099    0.225917220    
   Si      0.433987021    0.667708099    0.774082839    
   Al      0.414810658    0.330951989    0.776294887    
   Al      0.585189283    0.330951989    0.223705098    
    O      0.127655059    0.162301838    0.384202152    
    O      0.872344911    0.162301838    0.615797818    
    O      0.873701334    0.833344400    0.611273527    
    O      0.126298651    0.833344400    0.388726443    
    O      0.628784597    0.674474657    0.387560129    
    O      0.371215433    0.674474657    0.612439811    
    O      0.359303385    0.327915758    0.603628039    
    O      0.640696645    0.327915758    0.396371961    
    O      0.345558167    0.201302141    0.164822683    
    O      0.654441833    0.201302141    0.835177302    
    O      0.992973685    0.997328579    0.166155398    
    O      0.007026303    0.997328579    0.833844602    
    O      0.679468632    0.777605951    0.832680881    
    O      0.320531368    0.777605951    0.167319104    
    O      0.819633961    0.729902625    0.165694579    
    O      0.180366039    0.729902625    0.834305465    
    O      0.493600160    0.508092344    0.163435370    
    O      0.506399810    0.508092344    0.836564600    
    O      0.140600890    0.278450072    0.841489613    
    O      0.859399080    0.278450072    0.158510402    
    O      0.119126290    0.503384590    0.391253859    
    O      0.880873680    0.503384590    0.608746111    
    O      0.633625329    0.999004722    0.396674186    
    O      0.366374671    0.999004722    0.603325844    
    H      0.104797378    0.494601667    0.295764178    
    H      0.895202637    0.494601667    0.704235852    
    H      0.596987665    0.016263789    0.301801980    
    H      0.403012335    0.016263789    0.698198020    
K_POINTS automatic 
  6 3 3   0 0 0 

