 &CONTROL
   calculation     = 'vc-relax' 
   outdir          = './temp/' 
   pseudo_dir      = './../../pseudos/' 
   prefix          = 'phl-fe1' 
   verbosity       = 'high' 
   tstress         = .true. 
   tprnfor         = .true. 
 /
 &SYSTEM
   ibrav           = -12
   A               = 5.2856 
   B               = 9.1788 
   C               = 10.1916 
   cosAC           = -0.174017573 
   nat             = 44
   ntyp            = 7
   ecutwfc         = 110 
   ecutrho         = 660 
   occupations     = 'smearing' 
   degauss         = 0.001 
   smearing        = 'gaussian'
   nspin           = 2 
   starting_magnetization(1) = 0.1
   starting_magnetization(2) = 0.3
   starting_magnetization(3) = 0.1
   starting_magnetization(4) = 0.1
   starting_magnetization(5) = 0.1
   starting_magnetization(6) = 0.1
   starting_magnetization(7) = 0.1
   vdw_corr        = 'grimme-d2' 
 /
 &ELECTRONS
 /
 &IONS
 /
 &CELL
   cell_dofree     = 'ibrav' 
 /
ATOMIC_SPECIES
   Al   26.98154  Al.pbe-n-kjpaw_psl.1.0.0.UPF 
   Fe   55.84500  Fe.pbe-spn-kjpaw_psl.1.0.0.UPF 
    H    1.00794  H.pbe-kjpaw_psl.1.0.0.UPF 
    K   39.09830  K.pbe-spn-kjpaw_psl.1.0.0.UPF 
   Mg   24.30500  Mg.pbe-spnl-kjpaw_psl.1.0.0.UPF 
    O   15.99940  O.pbe-n-kjpaw_psl.1.0.0.UPF 
   Si   28.08550  Si.pbe-n-kjpaw_psl.1.0.0.UPF 
ATOMIC_POSITIONS crystal 
    K      0.000000000    0.493400007    0.000000000    
    K      0.500000000    0.005600000    0.000000000    
   Mg      0.000000000    0.003600000    0.500000000    
   Mg      0.000000000    0.333400011    0.500000000    
   Mg      0.000000000    0.664099991    0.500000000    
   Mg      0.500000000    0.834399998    0.500000000    
   Mg      0.500000000    0.173400000    0.500000000    
   Fe      0.500000000    0.497799993    0.500000000    
   Si      0.082699999    0.165199995    0.223000005    
   Si      0.917299986    0.165199995    0.777000010    
   Si      0.932900012    0.834100008    0.771300018    
   Si      0.067099988    0.834100008    0.228699982    
   Si      0.565599978    0.665899992    0.226799995    
   Si      0.434400022    0.665899992    0.773200035    
   Al      0.416799992    0.332300007    0.775500000    
   Al      0.583199978    0.332300007    0.224500000    
    O      0.126599997    0.163299993    0.385300010    
    O      0.873399973    0.163299993    0.614699960    
    O      0.874300003    0.832400024    0.610300004    
    O      0.125699997    0.832400024    0.389699996    
    O      0.626299977    0.667800009    0.388799995    
    O      0.373700023    0.667800009    0.611199975    
    O      0.363799989    0.335500002    0.603200018    
    O      0.636200011    0.335500002    0.396799982    
    O      0.342700005    0.204200000    0.166400000    
    O      0.657299995    0.204200000    0.833599985    
    O      0.997300029    0.996999979    0.167999998    
    O      0.002699971    0.996999979    0.832000017    
    O      0.679799974    0.775699973    0.830399990    
    O      0.320200026    0.775699973    0.169600010    
    O      0.818499982    0.730899990    0.168599993    
    O      0.181500018    0.730899990    0.831400037    
    O      0.495599985    0.507900000    0.162000000    
    O      0.504400015    0.507900000    0.838000000    
    O      0.144500002    0.276400000    0.838999987    
    O      0.855499983    0.276400000    0.161000013    
    O      0.137400001    0.502699971    0.395999998    
    O      0.862599969    0.502699971    0.603999972    
    O      0.632399976    0.999400020    0.397000015    
    O      0.367600024    0.999400020    0.602999985    
    H      0.119999997    0.493800014    0.301400006    
    H      0.879999995    0.493800014    0.698599994    
    H      0.596300006    0.012700000    0.302599996    
    H      0.403699994    0.012700000    0.697399974    
K_POINTS automatic 
  2 1 2   0 0 0 

