 &CONTROL
   calculation     = 'relax' 
   outdir          = './temp/' 
   pseudo_dir      = './../../../pseudos/' 
   prefix          = 'phl-fe1-fe2' 
   verbosity       = 'high' 
   restart_mode    = 'restart'
   etot_conv_thr   = 1.0D-5 
   forc_conv_thr   = 1.0D-4 
   nstep           = 100 
 /
 &SYSTEM
   ibrav           = -12
   A               = 5.3323421478 
   B               = 9.2564611435 
   C               = 10.4957609177 
   cosAC           = -0.1803085668 
   nat             = 44
   ntyp            = 7
   ecutwfc         = 90 
   ecutrho         = 720 
   occupations     = 'smearing' 
   degauss         = 0.0005 
   smearing        = 'gaussian' 
   nspin           = 2 
   starting_magnetization(2) = 0.3
   vdw_corr        = 'grimme-d3' 
 /
 &ELECTRONS
   conv_thr        = 1.0D-8 
 /
 &IONS
 /
ATOMIC_SPECIES
   Al   26.98154  Al.pbe-n-kjpaw_psl.1.0.0.UPF 
   Fe   55.84500  Fe.pbe-spn-kjpaw_psl.1.0.0.UPF 
    H    1.00794  H.pbe-kjpaw_psl.1.0.0.UPF 
    K   39.09830  K.pbe-spn-kjpaw_psl.1.0.0.UPF 
   Mg   24.30500  Mg.pbe-spnl-kjpaw_psl.1.0.0.UPF 
    O   15.99940  O.pbe-n-kjpaw_psl.1.0.0.UPF 
   Si   28.08550  Si.pbe-n-kjpaw_psl.1.0.0.UPF 
ATOMIC_POSITIONS crystal 
    K      0.000000000    0.483790994    0.000000000    
    K      0.500000000    0.012934000    0.000000000    
   Mg      0.000000000    0.004357000    0.500000000    
   Mg      0.000000000    0.665468991    0.500000000    
   Mg      0.500000000    0.492868990    0.500000000    
   Mg      0.500000000    0.834421992    0.500000000    
   Mg      0.500000000    0.172562003    0.500000000    
   Si      0.081129000    0.164747000    0.228311002    
   Si      0.918870986    0.164747000    0.771688998    
   Si      0.935625970    0.833958030    0.765394986    
   Si      0.064373001    0.833958030    0.234604999    
   Si      0.562996984    0.666818023    0.232456997    
   Si      0.437002987    0.666818023    0.767543018    
   Al      0.417275012    0.331263006    0.769625008    
   Al      0.582723975    0.331263006    0.230375007    
    O      0.126507998    0.163828999    0.386673003    
    O      0.873490989    0.163828999    0.613327026    
    O      0.875449002    0.833000004    0.608255029    
    O      0.124550000    0.833000004    0.391745001    
    O      0.624323010    0.669250011    0.390285999    
    O      0.375676990    0.669250011    0.609713972    
    O      0.361736000    0.332715005    0.601615012    
    O      0.638262987    0.332715005    0.398384988    
    O      0.336531997    0.206486002    0.171208993    
    O      0.663468003    0.206486002    0.828791022    
    O      0.999464989    0.996761024    0.174856007    
    O      0.000534000    0.996761024    0.825143993    
    O      0.686897993    0.772701025    0.823610008    
    O      0.313102007    0.772701025    0.176390007    
    O      0.811959028    0.734381020    0.175586000    
    O      0.188041002    0.734381020    0.824414015    
    O      0.500078022    0.508167982    0.169314995    
    O      0.499920994    0.508167982    0.830685019    
    O      0.149710998    0.272744000    0.834393978    
    O      0.850288987    0.272744000    0.165606007    
    O      0.130536005    0.504077971    0.397514999    
    O      0.869463980    0.504077971    0.602485001    
    O      0.632530987    0.999656022    0.400932014    
    O      0.367469013    0.999656022    0.599068999    
    H      0.099469997    0.497083992    0.304188013    
    H      0.900529027    0.497083992    0.695811987    
    H      0.596717000    0.012498000    0.308019996    
    H      0.403281987    0.012498000    0.691980004    
   Fe      0.000000000    0.333308011    0.500000000    
K_POINTS automatic 
  6 3 3   0 0 0 

