 &CONTROL
   calculation     = 'vc-relax' 
   outdir          = './temp/' 
   pseudo_dir      = './../../../pseudos/' 
   prefix          = 'phl-ti1-ti2-v6' 
   verbosity       = 'high' 
 /
 &SYSTEM
   ibrav           = -12
   A               = 5.325606823 
   B               = 9.245259285 
   C               = 10.421792030 
   cosAC           = -0.175985693 
   nat             = 43
   ntyp            = 7
   ecutwfc         = 60 
   ecutrho         = 480 
   occupations     = 'smearing' 
   degauss         = 0.001 
   smearing        = 'gaussian' 
   nspin           = 2 
   starting_magnetization(2) = 0.3
   vdw_corr        = 'grimme-d3' 
 /
 &ELECTRONS
 /
 &IONS
 /
 &CELL
   cell_dofree     = 'ibrav' 
 /
ATOMIC_SPECIES
   Al   26.98154  Al.pbe-n-kjpaw_psl.1.0.0.UPF 
   Ti   47.86700  Ti.pbe-spn-kjpaw_psl.1.0.0.UPF 
    H    1.00794  H.pbe-kjpaw_psl.1.0.0.UPF 
    K   39.09830  K.pbe-spn-kjpaw_psl.1.0.0.UPF 
   Mg   24.30500  Mg.pbe-spnl-kjpaw_psl.1.0.0.UPF 
    O   15.99940  O.pbe-n-kjpaw_psl.1.0.0.UPF 
   Si   28.08550  Si.pbe-n-kjpaw_psl.1.0.0.UPF 
ATOMIC_POSITIONS crystal 
    K      0.000000000    0.501794755    0.000000000    
    K      0.500000119    0.003238794    0.000000000    
   Mg      0.000000180    0.992361426    0.499999881    
   Mg      0.000000180    0.662144125    0.499999881    
   Mg      0.500000298    0.490100205    0.499999881    
   Mg      0.500000298    0.840135455    0.499999881    
   Si      0.076990940    0.164340913    0.223204076    
   Si      0.923009694    0.164340913    0.776795685    
   Si      0.936754346    0.832462311    0.767129719    
   Si      0.063246265    0.832462311    0.232869998    
   Si      0.561424077    0.667302012    0.230985954    
   Si      0.438576490    0.667302012    0.769013822    
   Al      0.411850780    0.332347572    0.775070131    
   Al      0.588149786    0.332347572    0.224929661    
    O      0.098628446    0.170120403    0.383824021    
    O      0.901372135    0.170120403    0.616175711    
    O      0.874268591    0.824650586    0.609662831    
    O      0.125732020    0.824650586    0.390336901    
    O      0.624542594    0.663359940    0.390011489    
    O      0.375458002    0.663359940    0.609988272    
    O      0.325830936    0.343341172    0.604139686    
    O      0.674169660    0.343341172    0.395860046    
    O      0.339497060    0.210332975    0.176978156    
    O      0.660503507    0.210332975    0.823021531    
    O      0.013479210    0.996098399    0.172656342    
    O      0.986521363    0.996098399    0.827343404    
    O      0.696247876    0.763967931    0.828166604    
    O      0.303752720    0.763967931    0.171833187    
    O      0.807291627    0.736541450    0.172361970    
    O      0.192709014    0.736541450    0.827637792    
    O      0.505741239    0.507938385    0.166177019    
    O      0.494259298    0.507938385    0.833822727    
    O      0.150005370    0.272182435    0.843557715    
    O      0.849995255    0.272182435    0.156442001    
    O      0.132547081    0.490055114    0.398799449    
    O      0.867453516    0.490055114    0.601200283    
    O      0.651264071    0.980020165    0.388605952    
    O      0.348736554    0.980020165    0.611393809    
    H      0.081014611    0.485134661    0.305020809    
    H      0.918986022    0.485134661    0.694978893    
    H      0.563737035    0.072518013    0.379783124    
    H      0.436263561    0.072518013    0.620216668    
   Ti      0.000000180    0.312223375    0.499999881    
K_POINTS automatic 
  6 3 3   0 0 0 

