 &CONTROL
   calculation     = 'relax' 
   outdir          = './temp/' 
   pseudo_dir      = './../../../pseudos/' 
   prefix          = 'phl-ti1-ti2-v1' 
   verbosity       = 'high' 
   restart_mode    = 'restart'
 /
 &SYSTEM
   ibrav           = -12
   A               = 5.29899 
   B               = 9.19537 
   C               = 10.20856 
   cosAC           = -0.17756524 
   nat             = 43
   ntyp            = 7
   ecutwfc         = 60 
   ecutrho         = 480 
   occupations     = 'smearing' 
   degauss         = 0.001 
   smearing        = 'gaussian' 
   nspin           = 2 
   starting_magnetization(2) = 0.3
   vdw_corr        = 'grimme-d3' 
 /
 &ELECTRONS
 /
 &IONS
 /
ATOMIC_SPECIES
   Al   26.98154  Al.pbe-n-kjpaw_psl.1.0.0.UPF 
   Ti   47.86700  Ti.pbe-spn-kjpaw_psl.1.0.0.UPF 
    H    1.00794  H.pbe-kjpaw_psl.1.0.0.UPF 
    K   39.09830  K.pbe-spn-kjpaw_psl.1.0.0.UPF 
   Mg   24.30500  Mg.pbe-spnl-kjpaw_psl.1.0.0.UPF 
    O   15.99940  O.pbe-n-kjpaw_psl.1.0.0.UPF 
   Si   28.08550  Si.pbe-n-kjpaw_psl.1.0.0.UPF 
ATOMIC_POSITIONS crystal 
K            0.0000000000       0.4932399990       0.0000000000
K            0.5000000000       0.0053920000       0.0000000000
Mg           0.0000000000       0.6652359960       0.5000000000
Mg           0.5000000000       0.4934130010       0.5000000000
Mg           0.5000000000       0.8344399930       0.5000000000
Mg           0.5000000000       0.1720950010       0.5000000000
Si           0.0827990030       0.1651149990       0.2225539980
Si           0.9172009830       0.1651149990       0.7774460320
Si           0.9340850110       0.8342440130       0.7715939880
Si           0.0659149890       0.8342440130       0.2284060120
Si           0.5646589990       0.6666520240       0.2264180030
Si           0.4353410010       0.6666520240       0.7735819820
Al           0.4160850050       0.3311670120       0.7760859730
Al           0.5839149950       0.3311670120       0.2239140270
O            0.1273179950       0.1632989940       0.3849050100
O            0.8726819750       0.1632989940       0.6150950190
O            0.8746989970       0.8327770230       0.6106299760
O            0.1253010030       0.8327770230       0.3893700240
O            0.6253799800       0.6695569750       0.3880850080
O            0.3746200200       0.6695569750       0.6119149920
O            0.3615019920       0.3330700100       0.6041610240
O            0.6384980080       0.3330700100       0.3958389760
O            0.3414599900       0.2045090050       0.1658090050
O            0.6585400100       0.2045090050       0.8341909650
O            0.9978989960       0.9971259830       0.1677999940
O            0.0021010040       0.9971259830       0.8321999910
O            0.6831520200       0.7744659780       0.8309699890
O            0.3168479800       0.7744659780       0.1690300110
O            0.8157359960       0.7324870230       0.1680009960
O            0.1842640040       0.7324870230       0.8319990040
O            0.4989160000       0.5077700020       0.1627659950
O            0.5010839700       0.5077700020       0.8372340200
O            0.1450230030       0.2756029960       0.8399950270
O            0.8549770120       0.2756029960       0.1600049730
O            0.1306629930       0.5042480230       0.3939700130
O            0.8693370220       0.5042480230       0.6060299870
O            0.6325640080       0.9990119930       0.3974150120
O            0.3674359920       0.9990119930       0.6025849580
H            0.0991519990       0.4958199860       0.2992320060
H            0.9008480310       0.4958199860       0.7007679940
H            0.5963619950       0.0126510000       0.3030909900
H            0.4036380050       0.0126510000       0.6969090100
Ti           0.0000000000       0.3331309850       0.5000000000    
K_POINTS automatic 
  6 3 3   0 0 0 

