 &CONTROL
   calculation     = 'vc-relax' 
   outdir          = './temp/' 
   pseudo_dir      = './../../../pseudos/' 
   prefix          = 'phl-ti1-ti2-v3' 
   verbosity       = 'high' 
 /
 &SYSTEM
   ibrav           = -12
   A               = 5.325606823 
   B               = 9.245259285 
   C               = 10.421792030 
   cosAC           = -0.175985693 
   nat             = 43
   ntyp            = 7
   ecutwfc         = 60 
   ecutrho         = 480 
   occupations     = 'smearing' 
   degauss         = 0.001 
   smearing        = 'gaussian' 
   nspin           = 2 
   starting_magnetization(2) = 0.3
   vdw_corr        = 'grimme-d3' 
 /
 &ELECTRONS
 /
 &IONS
 /
 &CELL
   cell_dofree     = 'ibrav' 
 /
ATOMIC_SPECIES
   Al   26.98154  Al.pbe-n-kjpaw_psl.1.0.0.UPF 
   Ti   47.86700  Ti.pbe-spn-kjpaw_psl.1.0.0.UPF 
    H    1.00794  H.pbe-kjpaw_psl.1.0.0.UPF 
    K   39.09830  K.pbe-spn-kjpaw_psl.1.0.0.UPF 
   Mg   24.30500  Mg.pbe-spnl-kjpaw_psl.1.0.0.UPF 
    O   15.99940  O.pbe-n-kjpaw_psl.1.0.0.UPF 
   Si   28.08550  Si.pbe-n-kjpaw_psl.1.0.0.UPF 
ATOMIC_POSITIONS crystal 
    K      0.000000000    0.495801479    0.000000000    
    K      0.500000119    0.004214939    0.000000000    
   Mg      0.000000180    0.976455331    0.499999881    
   Mg      0.500000298    0.505362213    0.499999881    
   Mg      0.500000298    0.821304679    0.499999881    
   Mg      0.500000298    0.160294309    0.499999881    
   Si      0.077032238    0.163127154    0.225286797    
   Si      0.922968388    0.163127154    0.774712980    
   Si      0.935105205    0.830898225    0.769223392    
   Si      0.064895369    0.830898225    0.230776340    
   Si      0.554992497    0.664475381    0.225928217    
   Si      0.445008069    0.664475381    0.774071515    
   Al      0.416663319    0.331537247    0.775410891    
   Al      0.583337247    0.331537247    0.224588886    
    O      0.119279847    0.170558646    0.387997180    
    O      0.880720735    0.170558646    0.612002552    
    O      0.861524522    0.833029747    0.613969982    
    O      0.138476089    0.833029747    0.386029720    
    O      0.599218130    0.660426974    0.382516265    
    O      0.400782466    0.660426974    0.617483497    
    O      0.347733557    0.328671485    0.600131869    
    O      0.652267098    0.328671485    0.399867833    
    O      0.340001166    0.204245359    0.175917551    
    O      0.659999371    0.204245359    0.824082136    
    O      0.999944925    0.996356964    0.173023090    
    O      0.000055671    0.996356964    0.826976657    
    O      0.696096063    0.767817080    0.836420655    
    O      0.303904504    0.767817080    0.163579106    
    O      0.805494070    0.736533940    0.172680750    
    O      0.194506556    0.736533940    0.827319026    
    O      0.505791008    0.504630864    0.161220223    
    O      0.494209528    0.504630864    0.838779569    
    O      0.154852286    0.266971856    0.839678109    
    O      0.845148325    0.266971856    0.160321623    
    O      0.122819319    0.481840998    0.394706815    
    O      0.877181292    0.481840998    0.605292916    
    O      0.635876179    0.997005701    0.401418179    
    O      0.364124477    0.997005701    0.598581612    
    H      0.033537947    0.575205207    0.389687300    
    H      0.966462731    0.575205207    0.610312402    
    H      0.601704001    0.004206619    0.307417423    
    H      0.398296624    0.004206619    0.692582369    
   Ti      0.000000180    0.336193979    0.499999881    
K_POINTS automatic 
  6 3 3   0 0 0 

