 &CONTROL
   calculation     = 'vc-relax' 
   outdir          = './temp/' 
   pseudo_dir      = './../../pseudos/' 
   prefix          = 'phl-fe1-fe1-nspin' 
   verbosity       = 'high' 
   tstress         = .true. 
   tprnfor         = .true. 
 /
 &SYSTEM
   ibrav           = -12
   A               = 5.29899 
   B               = 9.19537 
   C               = 10.20856 
   cosAC           = -0.17756524 
   nat             = 44
   ntyp            = 7
   ecutwfc         = 60 
   ecutrho         = 480
   occupations     = 'smearing' 
   degauss         = 0.001 
   smearing        = 'gaussian'
   vdw_corr        = 'grimme-d3' 
 /
 &ELECTRONS
 /
 &IONS
 /
 &CELL
   cell_dofree     = 'ibrav' 
 /
ATOMIC_SPECIES
   Al   26.98154  Al.pbe-n-kjpaw_psl.1.0.0.UPF 
   Fe   55.84500  Fe.pbe-spn-kjpaw_psl.1.0.0.UPF 
    H    1.00794  H.pbe-kjpaw_psl.1.0.0.UPF 
    K   39.09830  K.pbe-spn-kjpaw_psl.1.0.0.UPF 
   Mg   24.30500  Mg.pbe-spnl-kjpaw_psl.1.0.0.UPF 
    O   15.99940  O.pbe-n-kjpaw_psl.1.0.0.UPF 
   Si   28.08550  Si.pbe-n-kjpaw_psl.1.0.0.UPF 
ATOMIC_POSITIONS crystal 
K            0.000000000       0.492897511       0.000000000
K            0.500000000       0.004566759       0.000000000
Mg           0.000000000       0.329792202       0.500000000
Mg           0.000000000       0.666657329       0.500000000
Mg           0.500000000       0.493125856       0.500000000
Mg           0.500000000       0.836820781       0.500000000
Mg           0.500000000       0.170585766       0.500000000
Si           0.081312388       0.163801581       0.223158211
Si           0.918687582       0.163801581       0.776841819
Si           0.937936127       0.835600436       0.771028757
Si           0.062063880       0.835600436       0.228971228
Si           0.561638594       0.666769147       0.227319673
Si           0.438361377       0.666769147       0.772680283
Al           0.416719049       0.331102282       0.775038064
Al           0.583280921       0.331102282       0.224961966
O            0.125431210       0.159595400       0.386162817
O            0.874568760       0.159595400       0.613837183
O            0.875891089       0.836248040       0.609476149
O            0.124108918       0.836248040       0.390523881
O            0.624079704       0.669738770       0.388922364
O            0.375920296       0.669738770       0.611077666
O            0.361870557       0.332587719       0.603134274
O            0.638129413       0.332587719       0.396865696
O            0.341469496       0.202351749       0.166475073
O            0.658530533       0.202351749       0.833524883
O            0.990606487       0.997448087       0.165903762
O            0.009393524       0.997448087       0.834096193
O            0.686424792       0.775110900       0.830055416
O            0.313575208       0.775110900       0.169944555
O            0.812900960       0.732575178       0.168487802
O            0.187099040       0.732575178       0.831512213
O            0.494597346       0.507910073       0.162531629
O            0.505402625       0.507910073       0.837468386
O            0.143480957       0.276964486       0.839796007
O            0.856519043       0.276964486       0.160204008
O            0.129356593       0.504087389       0.393976420
O            0.870643437       0.504087389       0.606023610
O            0.639653385       0.999924779       0.399384737
O            0.360346615       0.999924779       0.600615263
H            0.098039657       0.494875371       0.298256457
H            0.901960373       0.494875371       0.701743543
H            0.622723162       0.015569771       0.304410785
H            0.377276808       0.015569771       0.695589185
Fe           0.000000000       0.001026738       0.500000000    
K_POINTS automatic 
  6 3 3   0 0 0 

