 &CONTROL
   calculation     = 'vc-relax' 
   restart_mode    = 'restart' 
   outdir          = './temp/' 
   pseudo_dir      = './../../../pseudos/' 
   prefix          = 'phl-fe1-fe2' 
   verbosity       = 'high' 
   etot_conv_thr   = 1.0D-5 
   forc_conv_thr   = 1.0D-4 
   nstep           = 100 
 /
 &SYSTEM
   ibrav           = -12
   A               = 5.3323421478 
   B               = 9.2564611435 
   C               = 10.4957609177 
   cosAC           = -0.1803085668 
   nat             = 44
   ntyp            = 7
   ecutwfc         = 90 
   ecutrho         = 720 
   occupations     = 'smearing' 
   degauss         = 0.0005 
   smearing        = 'gaussian' 
   nspin           = 2 
   starting_magnetization(2) = 0.3
   vdw_corr        = 'grimme-d3' 
 /
 &ELECTRONS
   conv_thr        = 1.0D-8 
 /
 &IONS
 /
 &CELL
   press_conv_thr  = 5.0D-2 
   cell_dofree     = 'ibrav' 
 /
ATOMIC_SPECIES
   Al   26.98154  Al.pbe-n-kjpaw_psl.1.0.0.UPF 
   Fe   55.84500  Fe.pbe-spn-kjpaw_psl.1.0.0.UPF 
    H    1.00794  H.pbe-kjpaw_psl.1.0.0.UPF 
    K   39.09830  K.pbe-spn-kjpaw_psl.1.0.0.UPF 
   Mg   24.30500  Mg.pbe-spnl-kjpaw_psl.1.0.0.UPF 
    O   15.99940  O.pbe-n-kjpaw_psl.1.0.0.UPF 
   Si   28.08550  Si.pbe-n-kjpaw_psl.1.0.0.UPF 
ATOMIC_POSITIONS crystal 
    K      0.000000000    0.489190787    0.000000000    
    K      0.500000000    0.006467148    0.000000000    
   Mg      0.000000000    0.006270501    0.500000000    
   Mg      0.000000000    0.667185128    0.500000000    
   Mg      0.500000000    0.495797455    0.500000000    
   Mg      0.500000000    0.835464478    0.500000000    
   Mg      0.500000000    0.170484439    0.500000000    
   Si      0.089760207    0.163298115    0.226700023    
   Si      0.910239756    0.163298115    0.773299992    
   Si      0.934377611    0.834174991    0.765741706    
   Si      0.065621346    0.834174991    0.234258264    
   Si      0.565048337    0.666695535    0.232810542    
   Si      0.434951663    0.666695535    0.767189443    
   Al      0.408815473    0.330680370    0.770264208    
   Al      0.591183484    0.330680370    0.229735807    
    O      0.136074498    0.157810465    0.384550750    
    O      0.863924503    0.157810465    0.615449250    
    O      0.874768615    0.834566474    0.608709335    
    O      0.125230417    0.834566474    0.391290665    
    O      0.626634061    0.669820666    0.390606046    
    O      0.373365909    0.669820666    0.609393895    
    O      0.360088557    0.333158165    0.600957036    
    O      0.639910400    0.333158165    0.399042934    
    O      0.346718848    0.205069631    0.170584664    
    O      0.653281152    0.205069631    0.829415321    
    O      0.005129695    0.996379673    0.171538621    
    O      0.994869351    0.996379673    0.828461349    
    O      0.687422693    0.770062566    0.823839724    
    O      0.312577307    0.770062566    0.176160276    
    O      0.810774505    0.736647069    0.175060228    
    O      0.189225540    0.736647069    0.824939787    
    O      0.507443607    0.507428825    0.169875607    
    O      0.492555410    0.507428825    0.830124378    
    O      0.138607606    0.274272949    0.833348155    
    O      0.861392379    0.274272949    0.166651815    
    O      0.136444896    0.511498392    0.394363970    
    O      0.863555074    0.511498392    0.605636060    
    O      0.634378195    0.999590695    0.400163144    
    O      0.365621805    0.999590695    0.599837840    
    H      0.105245523    0.492824167    0.302279830    
    H      0.894753516    0.492824167    0.697720170    
    H      0.595753372    0.012885056    0.307344496    
    H      0.404245645    0.012885056    0.692655504    
   Fe      0.000000000    0.335398585    0.500000000    
K_POINTS automatic 
  6 3 3   0 0 0 

