 &CONTROL
   calculation     = 'vc-relax' 
   outdir          = './temp/' 
   pseudo_dir      = './../../../pseudos/' 
   prefix          = 'phl-fe1-fe2' 
   verbosity       = 'high' 
   tstress         = .true. 
   tprnfor         = .true. 
 /
 &SYSTEM
   ibrav           = -12
   A               = 5.29899 
   B               = 9.19537 
   C               = 10.20856 
   cosAC           = -0.17756524 
   nat             = 44
   ntyp            = 7
   ecutwfc         = 60 
   ecutrho         = 480
   occupations     = 'smearing' 
   degauss         = 0.001 
   smearing        = 'gaussian'
   nspin           = 2 
   starting_magnetization(2) = 0.3
   vdw_corr        = 'grimme-d3' 
 /
 &ELECTRONS
 /
 &IONS
 /
 &CELL
   cell_dofree     = 'ibrav' 
 /
ATOMIC_SPECIES
   Al   26.98154  Al.pbe-n-kjpaw_psl.1.0.0.UPF 
   Fe   55.84500  Fe.pbe-spn-kjpaw_psl.1.0.0.UPF 
    H    1.00794  H.pbe-kjpaw_psl.1.0.0.UPF 
    K   39.09830  K.pbe-spn-kjpaw_psl.1.0.0.UPF 
   Mg   24.30500  Mg.pbe-spnl-kjpaw_psl.1.0.0.UPF 
    O   15.99940  O.pbe-n-kjpaw_psl.1.0.0.UPF 
   Si   28.08550  Si.pbe-n-kjpaw_psl.1.0.0.UPF 
ATOMIC_POSITIONS crystal 
K            0.000000000       0.499026835       0.000000000
K            0.500000000       0.995360315       0.000000000
Mg           0.000000000       0.006480788       0.500000000
Mg           0.000000000       0.666710079       0.500000000
Mg           0.500000000       0.496151388       0.500000000
Mg           0.500000000       0.835886121       0.500000000
Mg           0.500000000       0.170728609       0.500000000
Si           0.092883088       0.163675964       0.220410630
Si           0.907116890       0.163675964       0.779589415
Si           0.934126496       0.834638178       0.771551251
Si           0.065873504       0.834638178       0.228448749
Si           0.565337837       0.666232467       0.227011874
Si           0.434662133       0.666232467       0.772988141
Al           0.405982643       0.330269426       0.777116716
Al           0.594017386       0.330269426       0.222883269
O            0.137183055       0.157955885       0.382329404
O            0.862816930       0.157955885       0.617670655
O            0.873984635       0.834904552       0.610642076
O            0.126015380       0.834904552       0.389357954
O            0.627339244       0.669686854       0.388709575
O            0.372660726       0.669686854       0.611290455
O            0.359836996       0.333723754       0.603590310
O            0.640163004       0.333723754       0.396409661
O            0.354836196       0.200304121       0.164051503
O            0.645163834       0.200304121       0.835948467
O            0.000496387       0.997057915       0.163984254
O            0.999503613       0.997057915       0.836015761
O            0.684329391       0.772582829       0.831295729
O            0.315670609       0.772582829       0.168704271
O            0.813585818       0.734320819       0.167331994
O            0.186414167       0.734320819       0.832668006
O            0.503061295       0.506890297       0.162158608
O            0.496938646       0.506890297       0.837841392
O            0.129804000       0.279207468       0.840351403
O            0.870196044       0.279207468       0.159648597
O            0.136844739       0.511970878       0.390301794
O            0.863155246       0.511970878       0.609698236
O            0.634290218       0.999428868       0.396575928
O            0.365709811       0.999428868       0.603424072
H            0.107382216       0.488371640       0.296648234
H            0.892617822       0.488371640       0.703351796
H            0.593020976       0.015621495       0.301658034
H            0.406979024       0.015621495       0.698341966
Fe           0.000000000       0.335964054       0.500000000    
K_POINTS automatic 
  6 3 3   0 0 0 

