 &CONTROL
   calculation     = 'vc-relax' 
   outdir          = './temp/' 
   pseudo_dir      = './../../pseudos/' 
   prefix          = 'phl-fe0-dftd3' 
   verbosity       = 'high' 
   tstress         = .true. 
   tprnfor         = .true. 
 /
 &SYSTEM
   ibrav           = -12
   A               = 5.29899 
   B               = 9.19537 
   C               = 10.20856 
   cosAC           = -0.17756524 
   nat             = 44
   ntyp            = 6
   ecutwfc         = 60 
   ecutrho         = 480 
   occupations     = 'fixed' 
   vdw_corr        = 'grimme-d3' 
 /
 &ELECTRONS
 /
 &IONS
 /
 &CELL
   cell_dofree     = 'ibrav' 
 /
ATOMIC_SPECIES
   Al   26.98154  Al.pbe-n-kjpaw_psl.1.0.0.UPF 
    H    1.00794  H.pbe-kjpaw_psl.1.0.0.UPF 
    K   39.09830  K.pbe-spn-kjpaw_psl.1.0.0.UPF 
   Mg   24.30500  Mg.pbe-spnl-kjpaw_psl.1.0.0.UPF 
    O   15.99940  O.pbe-n-kjpaw_psl.1.0.0.UPF 
   Si   28.08550  Si.pbe-n-kjpaw_psl.1.0.0.UPF 
ATOMIC_POSITIONS crystal 
    K      0.000000000    0.492857665    0.000000000    
    K      0.500000000    0.004796913    0.000000000    
   Mg      0.000000000    0.004265856    0.500000000    
   Mg      0.000000000    0.333239615    0.500000000    
   Mg      0.000000000    0.665166497    0.500000000    
   Mg      0.500000000    0.493217230    0.500000000    
   Mg      0.500000000    0.834559143    0.500000000    
   Mg      0.500000000    0.172190890    0.500000000    
   Si      0.083276451    0.165101320    0.222033486    
   Si      0.916723549    0.165101320    0.777966559    
   Si      0.934691787    0.834342062    0.771538913    
   Si      0.065308236    0.834342062    0.228461087    
   Si      0.563860118    0.666465580    0.226270288    
   Si      0.436139882    0.666465580    0.773729682    
   Al      0.415419877    0.331090242    0.776077986    
   Al      0.584580123    0.331090242    0.223922014    
    O      0.127246082    0.163636833    0.384459972    
    O      0.872753918    0.163636833    0.615540028    
    O      0.874578357    0.833118439    0.610447586    
    O      0.125421658    0.833118439    0.389552414    
    O      0.625158548    0.668940067    0.388052493    
    O      0.374841452    0.668940067    0.611947477    
    O      0.361241251    0.332999557    0.603922606    
    O      0.638758779    0.332999557    0.396077365    
    O      0.343057364    0.202645913    0.164655268    
    O      0.656942606    0.202645913    0.835344672    
    O      0.995185852    0.997245848    0.167078882    
    O      0.004814119    0.997245848    0.832921088    
    O      0.683164001    0.775266707    0.831438363    
    O      0.316835970    0.775266707    0.168561623    
    O      0.815504789    0.731925786    0.167604193    
    O      0.184495211    0.731925786    0.832395792    
    O      0.495970756    0.507754743    0.161391899    
    O      0.504029214    0.507754743    0.838608086    
    O      0.143185720    0.276827782    0.841491938    
    O      0.856814325    0.276827782    0.158508062    
    O      0.130250558    0.504192710    0.393716216    
    O      0.869749486    0.504192710    0.606283784    
    O      0.632252157    0.999258161    0.397182465    
    O      0.367747873    0.999258161    0.602817535    
    H      0.098913305    0.495116532    0.297995895    
    H      0.901086748    0.495116532    0.702004075    
    H      0.595415413    0.013922181    0.301955700    
    H      0.404584587    0.013922181    0.698044300    
K_POINTS automatic 
  6 3 3   0 0 0 

