 &CONTROL
   calculation     = 'vc-relax' 
   outdir          = './temp/' 
   pseudo_dir      = './../../pseudos/' 
   prefix          = 'phl-fe0-dftd3' 
   verbosity       = 'high' 
   etot_conv_thr   = 1.0D-5 
   forc_conv_thr   = 5.0D-4 
   nstep           = 100 
 /
 &SYSTEM
   ibrav           = -12
   A               = 5.29899 
   B               = 9.19537 
   C               = 10.20856 
   cosAC           = -0.17756524 
   nat             = 44
   ntyp            = 6
   ecutwfc         = 65 
   ecutrho         = 520 
   occupations     = 'fixed' 
   vdw_corr        = 'grimme-d3' 
 /
 &ELECTRONS
   conv_thr        = 1.0D-8 
 /
 &IONS
 /
 &CELL
   press_conv_thr  = 1.0D-1 
   cell_dofree     = 'ibrav' 
 /
ATOMIC_SPECIES
   Al   26.98154  Al.pbe-n-kjpaw_psl.1.0.0.UPF 
    H    1.00794  H.pbe-kjpaw_psl.1.0.0.UPF 
    K   39.09830  K.pbe-spn-kjpaw_psl.1.0.0.UPF 
   Mg   24.30500  Mg.pbe-spnl-kjpaw_psl.1.0.0.UPF 
    O   15.99940  O.pbe-n-kjpaw_psl.1.0.0.UPF 
   Si   28.08550  Si.pbe-n-kjpaw_psl.1.0.0.UPF 
ATOMIC_POSITIONS crystal 
    K      0.000000000    0.494113773    0.000000000    
    K      0.500000000    0.002360506    0.000000000    
   Mg      0.000000000    0.004399371    0.500000000    
   Mg      0.000000000    0.333322436    0.500000000    
   Mg      0.000000000    0.665331304    0.500000000    
   Mg      0.500000000    0.492981762    0.500000000    
   Mg      0.500000000    0.834774494    0.500000000    
   Mg      0.500000000    0.172349960    0.500000000    
   Si      0.083985195    0.165078327    0.222111136    
   Si      0.916014791    0.165078327    0.777888894    
   Si      0.935474396    0.834324837    0.771439791    
   Si      0.064525634    0.834324837    0.228560194    
   Si      0.563132524    0.666405320    0.226498112    
   Si      0.436867505    0.666405320    0.773501873    
   Al      0.414870501    0.330937237    0.776182771    
   Al      0.585129499    0.330937237    0.223817244    
    O      0.127520815    0.163801908    0.384523988    
    O      0.872479141    0.163801908    0.615476072    
    O      0.875081420    0.833217919    0.610394299    
    O      0.124918573    0.833217919    0.389605671    
    O      0.624867678    0.669092298    0.388239205    
    O      0.375132293    0.669092298    0.611760795    
    O      0.361109912    0.332897186    0.603994250    
    O      0.638890088    0.332897186    0.396005750    
    O      0.344680578    0.201426819    0.164902657    
    O      0.655319452    0.201426819    0.835097313    
    O      0.994270027    0.997304678    0.167281300    
    O      0.005729964    0.997304678    0.832718670    
    O      0.683837533    0.775291562    0.831345141    
    O      0.316162497    0.775291562    0.168654844    
    O      0.814960003    0.731652975    0.167711139    
    O      0.185039982    0.731652975    0.832288861    
    O      0.494828016    0.507685065    0.161625266    
    O      0.505171955    0.507685065    0.838374734    
    O      0.141300187    0.277730674    0.841251254    
    O      0.858699799    0.277730674    0.158748731    
    O      0.130532473    0.504135430    0.394131869    
    O      0.869467556    0.504135430    0.605868101    
    O      0.632521987    0.999456584    0.397559047    
    O      0.367478013    0.999456584    0.602440894    
    H      0.099280640    0.494155318    0.298507363    
    H      0.900719404    0.494155318    0.701492667    
    H      0.594608009    0.015586683    0.302560329    
    H      0.405391991    0.015586683    0.697439671    
K_POINTS automatic 
  6 3 3   0 0 0 

