 &CONTROL
   calculation     = 'vc-relax' 
   outdir          = './temp/' 
   pseudo_dir      = './../../pseudos/' 
   prefix          = 'phl-fe0-dftd3' 
   verbosity       = 'high' 
   restart_mode    = 'restart'
   etot_conv_thr   = 1.0D-5 
   forc_conv_thr   = 1.0D-4 
   nstep           = 100 
 /
 &SYSTEM
   ibrav           = -12
   A               = 5.29899 
   B               = 9.19537 
   C               = 10.20856 
   cosAC           = -0.17756524 
   nat             = 44
   ntyp            = 6
   ecutwfc         = 90 
   ecutrho         = 720 
   occupations     = 'fixed' 
   vdw_corr        = 'grimme-d3' 
 /
 &ELECTRONS
   conv_thr        = 1.0D-8 
 /
 &IONS
 /
 &CELL
   press_conv_thr  = 5.0D-2 
   cell_dofree     = 'ibrav' 
 /
ATOMIC_SPECIES
   Al   26.98154  Al.pbe-n-kjpaw_psl.1.0.0.UPF 
    H    1.00794  H.pbe-kjpaw_psl.1.0.0.UPF 
    K   39.09830  K.pbe-spn-kjpaw_psl.1.0.0.UPF 
   Mg   24.30500  Mg.pbe-spnl-kjpaw_psl.1.0.0.UPF 
    O   15.99940  O.pbe-n-kjpaw_psl.1.0.0.UPF 
   Si   28.08550  Si.pbe-n-kjpaw_psl.1.0.0.UPF 
ATOMIC_POSITIONS crystal 
    K      0.000000000    0.495835304    0.000000000    
    K      0.500000000    0.001087734    0.000000000    
   Mg      0.000000000    0.004558220    0.500000000    
   Mg      0.000000000    0.333249420    0.500000000    
   Mg      0.000000000    0.665145576    0.500000000    
   Mg      0.500000000    0.492965400    0.500000000    
   Mg      0.500000000    0.834850729    0.500000000    
   Mg      0.500000000    0.172400400    0.500000000    
   Si      0.085003741    0.165093184    0.222097233    
   Si      0.914996266    0.165093184    0.777902782    
   Si      0.936090946    0.834430873    0.771345139    
   Si      0.063909061    0.834430873    0.228654861    
   Si      0.562579572    0.666280568    0.226552099    
   Si      0.437420458    0.666280568    0.773447871    
   Al      0.413728535    0.330802679    0.776244342    
   Al      0.586271465    0.330802679    0.223755658    
    O      0.127848789    0.163750947    0.384531677    
    O      0.872151196    0.163750947    0.615468383    
    O      0.875131249    0.833286285    0.610295892    
    O      0.124868751    0.833286285    0.389704108    
    O      0.624657035    0.668988943    0.388294280    
    O      0.375342995    0.668988943    0.611705720    
    O      0.360998571    0.332870007    0.604015946    
    O      0.639001429    0.332870007    0.395984054    
    O      0.346142560    0.201018974    0.165106788    
    O      0.653857410    0.201018974    0.834893167    
    O      0.995157659    0.997451067    0.167102754    
    O      0.004842361    0.997451067    0.832897246    
    O      0.685549080    0.774216175    0.831443131    
    O      0.314450890    0.774216175    0.168556884    
    O      0.813315332    0.732676029    0.167638868    
    O      0.186684653    0.732676029    0.832361102    
    O      0.495954722    0.507467687    0.161558241    
    O      0.504045248    0.507467687    0.838441789    
    O      0.139710411    0.278124064    0.841236115    
    O      0.860289633    0.278124064    0.158763871    
    O      0.130435139    0.504147112    0.393914789    
    O      0.869564891    0.504147112    0.606085181    
    O      0.632456124    0.999481320    0.397293806    
    O      0.367543906    0.999481320    0.602706194    
    H      0.099078797    0.493189871    0.298369020    
    H      0.900921226    0.493189871    0.701631010    
    H      0.593687057    0.016675390    0.302448660    
    H      0.406312943    0.016675390    0.697551310    
K_POINTS automatic 
  6 3 3   0 0 0 

