 &CONTROL
   calculation     = 'relax' 
   outdir          = './temp/' 
   pseudo_dir      = './../../pseudos/' 
   prefix          = 'phl-fe0-n1' 
   verbosity       = 'high' 
   etot_conv_thr   = 1.0D-5 
   forc_conv_thr   = 5.0D-4 
   nstep           = 100 
 /
 &SYSTEM
   ibrav           = -12
   A               = 5.3223162 
   B               = 9.2392445 
   C               = 10.3140732 
   cosAC           = -0.1784350 
   nat             = 44
   ntyp            = 6
   ecutwfc         = 65 
   ecutrho         = 520 
   occupations     = 'fixed' 
   vdw_corr        = 'grimme-d3' 
 /
 &ELECTRONS
   conv_thr        = 1.0D-8 
 /
 &IONS
 /
ATOMIC_SPECIES
   Al   26.98154  Al.pbe-n-kjpaw_psl.1.0.0.UPF 
    H    1.00794  H.pbe-kjpaw_psl.1.0.0.UPF 
    K   39.09830  K.pbe-spn-kjpaw_psl.1.0.0.UPF 
   Mg   24.30500  Mg.pbe-spnl-kjpaw_psl.1.0.0.UPF 
    O   15.99940  O.pbe-n-kjpaw_psl.1.0.0.UPF 
   Si   28.08550  Si.pbe-n-kjpaw_psl.1.0.0.UPF 
ATOMIC_POSITIONS crystal 
    K      0.000000000    0.487666577    0.000000000    
    K      0.499999821    0.009066906    0.000000000    
   Mg      0.999999881    0.004376228    0.499999881    
   Mg      0.999999881    0.333279848    0.499999881    
   Mg      0.999999881    0.665437222    0.499999881    
   Mg      0.499999672    0.492890090    0.499999881    
   Mg      0.499999672    0.834515631    0.499999881    
   Mg      0.499999672    0.172520250    0.499999881    
   Si      0.082934685    0.164844900    0.226692885    
   Si      0.917064667    0.164844900    0.773306906    
   Si      0.934884727    0.834123850    0.766953766    
   Si      0.065114632    0.834123850    0.233046010    
   Si      0.563753724    0.666674078    0.230892584    
   Si      0.436245620    0.666674078    0.769107163    
   Al      0.415622830    0.331123829    0.771369100    
   Al      0.584376514    0.331123829    0.228630722    
    O      0.127182737    0.163784355    0.386110455    
    O      0.872816563    0.163784355    0.613889396    
    O      0.875064969    0.833100855    0.608811438    
    O      0.124934360    0.833100855    0.391188323    
    O      0.624718904    0.669188797    0.389725357    
    O      0.375280410    0.669188797    0.610274434    
    O      0.361345023    0.332800686    0.602269530    
    O      0.638654292    0.332800686    0.397730231    
    O      0.340234846    0.204741374    0.169636011    
    O      0.659764528    0.204741374    0.830363750    
    O      0.998760223    0.996946990    0.172823668    
    O      0.001239108    0.996946990    0.827176094    
    O      0.685210824    0.773453653    0.825649798    
    O      0.314788520    0.773453653    0.174349993    
    O      0.813612282    0.733664274    0.173474863    
    O      0.186387032    0.733664274    0.826524913    
    O      0.499515891    0.508012056    0.167242676    
    O      0.500483453    0.508012056    0.832757115    
    O      0.145852849    0.274429083    0.836127281    
    O      0.854146481    0.274429083    0.163872480    
    O      0.130753323    0.504099667    0.396606535    
    O      0.869246066    0.504099667    0.603393197    
    O      0.632798612    0.999572217    0.400011271    
    O      0.367200702    0.999572217    0.599988461    
    H      0.100176722    0.496115714    0.302692175    
    H      0.899822652    0.496115714    0.697307646    
    H      0.596722066    0.013442758    0.306564569    
    H      0.403277278    0.013442758    0.693435252    
K_POINTS automatic 
  6 3 3   0 0 0 

