 &CONTROL
   calculation     = 'vc-relax' 
   outdir          = './temp/' 
   pseudo_dir      = './../../pseudos/' 
   prefix          = 'phl-fe1' 
   verbosity       = 'high' 
   tstress         = .true. 
   tprnfor         = .true. 
 /
 &SYSTEM
   ibrav           = -12
   A               = 5.2856 
   B               = 9.1788 
   C               = 10.1916 
   cosAC           = -0.174017573 
   nat             = 44
   ntyp            = 7
   ecutwfc         = 60 
   ecutrho         = 480 
   occupations     = 'smearing' 
   degauss         = 0.001 
   smearing        = 'gaussian' 
   vdw_corr        = 'grimme-d2' 
 /
 &ELECTRONS
 /
 &IONS
 /
 &CELL
   cell_dofree     = 'ibrav' 
 /
ATOMIC_SPECIES
   Al   26.98154  Al.pbe-n-kjpaw_psl.1.0.0.UPF 
   Fe   55.84500  Fe.pbe-spn-kjpaw_psl.1.0.0.UPF 
    H    1.00794  H.pbe-kjpaw_psl.1.0.0.UPF 
    K   39.09830  K.pbe-spn-kjpaw_psl.1.0.0.UPF 
   Mg   24.30500  Mg.pbe-spnl-kjpaw_psl.1.0.0.UPF 
    O   15.99940  O.pbe-n-kjpaw_psl.1.0.0.UPF 
   Si   28.08550  Si.pbe-n-kjpaw_psl.1.0.0.UPF 
ATOMIC_POSITIONS crystal 
    K      0.000000000    0.495463997    0.000000000    
    K      0.500000000    0.002969762    0.000000000    
   Mg      0.000000000    0.003460212    0.500000000    
   Mg      0.000000000    0.334192961    0.500000000    
   Mg      0.000000000    0.662436962    0.500000000    
   Mg      0.500000000    0.833201945    0.500000000    
   Mg      0.500000000    0.173875436    0.500000000    
   Fe      0.500000000    0.498583078    0.500000000    
   Si      0.082208663    0.165108263    0.223422796    
   Si      0.917791307    0.165108263    0.776577234    
   Si      0.933418036    0.834051967    0.770934165    
   Si      0.066581987    0.834051967    0.229065850    
   Si      0.564697206    0.665672123    0.226158485    
   Si      0.435302794    0.665672123    0.773841560    
   Al      0.417794645    0.332862794    0.775279522    
   Al      0.582205355    0.332862794    0.224720463    
    O      0.126056388    0.163711712    0.385808408    
    O      0.873943567    0.163711712    0.614191532    
    O      0.874143064    0.832025528    0.609869182    
    O      0.125856951    0.832025528    0.390130788    
    O      0.627439022    0.667066813    0.388394177    
    O      0.372560978    0.667066813    0.611605823    
    O      0.364685744    0.337419212    0.602473497    
    O      0.635314226    0.337419212    0.397526532    
    O      0.343583137    0.202339396    0.166460603    
    O      0.656416833    0.202339396    0.833539367    
    O      0.993167996    0.997151732    0.168023750    
    O      0.006832020    0.997151732    0.831976235    
    O      0.679178953    0.777376771    0.830883622    
    O      0.320821077    0.777376771    0.169116408    
    O      0.818990707    0.729718447    0.167701960    
    O      0.181009293    0.729718447    0.832298040    
    O      0.491097063    0.508061409    0.159905806    
    O      0.508902967    0.508061409    0.840094209    
    O      0.143770680    0.277588606    0.839370847    
    O      0.856229305    0.277588606    0.160629153    
    O      0.139018387    0.502235711    0.394940346    
    O      0.860981584    0.502235711    0.605059624    
    O      0.631685555    0.999467969    0.396571189    
    O      0.368314475    0.999467969    0.603428841    
    H      0.125274211    0.491603225    0.299421668    
    H      0.874725759    0.491603225    0.700578332    
    H      0.595568776    0.014496181    0.301358759    
    H      0.404431254    0.014496181    0.698641241    
K_POINTS automatic 
  6 3 3   0 0 0 

