 &CONTROL
   calculation     = 'vc-relax' 
   outdir          = './temp/' 
   pseudo_dir      = './../../pseudos/' 
   prefix          = 'phl-f' 
   verbosity       = 'high' 
 /
 &SYSTEM
   ibrav           = -12
   A               = 5.29899 
   B               = 9.19537 
   C               = 10.20856 
   cosAC           = -0.17756524 
   nat             = 40
   ntyp            = 6
   ecutwfc         = 60 
   ecutrho         = 480 
   occupations     = 'fixed' 
   vdw_corr        = 'grimme-d3' 
 /
 &ELECTRONS
 /
 &IONS
 /
 &CELL
   cell_dofree     = 'ibrav' 
 /
ATOMIC_SPECIES
   Al   26.98154  Al.pbe-n-kjpaw_psl.1.0.0.UPF 
    F   18.99840  F.pbe-n-kjpaw_psl.1.0.0.UPF 
    K   39.09830  K.pbe-spn-kjpaw_psl.1.0.0.UPF 
   Mg   24.30500  Mg.pbe-spnl-kjpaw_psl.1.0.0.UPF 
    O   15.99940  O.pbe-n-kjpaw_psl.1.0.0.UPF 
   Si   28.08550  Si.pbe-n-kjpaw_psl.1.0.0.UPF 
ATOMIC_POSITIONS crystal 
    K      0.000000000    0.488018155    0.000000000    
    K      0.500000000    0.009637071    0.000000000    
   Mg      0.000000000    0.003837268    0.500000000    
   Mg      0.000000000    0.332157642    0.500000000    
   Mg      0.000000000    0.666273475    0.500000000    
   Mg      0.500000000    0.494455636    0.500000000    
   Mg      0.500000000    0.833109498    0.500000000    
   Mg      0.500000000    0.173693806    0.500000000    
   Si      0.082127936    0.164940506    0.221998096    
   Si      0.917872071    0.164940506    0.778001845    
   Si      0.933720648    0.833906412    0.772327483    
   Si      0.066279344    0.833906412    0.227672517    
   Si      0.564774692    0.666098654    0.225275576    
   Si      0.435225308    0.666098654    0.774724424    
   Al      0.416453362    0.331174076    0.776162326    
   Al      0.583546638    0.331174076    0.223837614    
    O      0.128308967    0.162813604    0.386244386    
    O      0.871690989    0.162813604    0.613755643    
    O      0.874501705    0.832594514    0.609804392    
    O      0.125498265    0.832594514    0.390195608    
    O      0.625294030    0.669174254    0.388663799    
    O      0.374705911    0.669174254    0.611336231    
    O      0.359600306    0.334539086    0.602303684    
    O      0.640399694    0.334539086    0.397696316    
    O      0.336859256    0.208345503    0.164670110    
    O      0.663140774    0.208345503    0.835329950    
    O      0.003149033    0.996721864    0.167938322    
    O      0.996851027    0.996721864    0.832061648    
    O      0.684085488    0.772523999    0.830738187    
    O      0.315914571    0.772523999    0.169261783    
    O      0.814293087    0.734294415    0.168368682    
    O      0.185706928    0.734294415    0.831631303    
    O      0.503667891    0.507666409    0.161411345    
    O      0.496332139    0.507666409    0.838588655    
    O      0.149942905    0.271548659    0.841011584    
    O      0.850057125    0.271548659    0.158988431    
    F      0.130975276    0.506468773    0.398500443    
    F      0.869024754    0.506468773    0.601499557    
    F      0.634263337    0.998124540    0.403042704    
    F      0.365736663    0.998124540    0.596957326    
K_POINTS automatic 
  6 3 3   0 0 0 

